# Mg96
1.000000
     12.68810000        0.00000000        0.00000000
     -6.34405000       10.98821693        0.00000000
      0.00000000        0.00000000       35.42360000
 Mg
    97
Cartesian
     -0.00000634        1.83137315        1.28530990
      1.58601884        0.91568108        3.85589428
      3.17201866        1.83137315        1.28530990
      4.75804384        0.91568108        3.85589428
      6.34404366        1.83137315        1.28530990
      7.93006884        0.91568108        3.85589428
      9.51606866        1.83137315        1.28530990
     11.10209384        0.91568108        3.85589428
     -1.58601884        4.57842738        1.28530990
      0.00000634        3.66273531        3.85589428
      1.58600616        4.57842738        1.28530990
      3.17203134        3.66273531        3.85589428
      4.75803116        4.57842738        1.28530990
      6.34405634        3.66273531        3.85589428
      7.93005616        4.57842738        1.28530990
      9.51608134        3.66273531        3.85589428
     -3.17203134        7.32548161        1.28530990
     -1.58600616        6.40978954        3.85589428
     -0.00000634        7.32548161        1.28530990
      1.58601884        6.40978954        3.85589428
      3.17201866        7.32548161        1.28530990
      4.75804384        6.40978954        3.85589428
      6.34404366        7.32548161        1.28530990
      7.93006884        6.40978954        3.85589428
     -4.75804384       10.07253584        1.28530990
     -3.17201866        9.15684378        3.85589428
     -1.58601884       10.07253584        1.28530990
      0.00000634        9.15684378        3.85589428
      1.58600616       10.07253584        1.28530990
      3.17203134        9.15684378        3.85589428
      4.75803116       10.07253584        1.28530990
      6.34405634        9.15684378        3.85589428
     -0.00000634        1.83137315        6.42651409
      1.58601884        0.91568108        8.99709847
      3.17201866        1.83137315        6.42651409
      4.75804384        0.91568108        8.99709847
      6.34404366        1.83137315        6.42651409
      7.93006884        0.91568108        8.99709847
      9.51606866        1.83137315        6.42651409
     11.10209384        0.91568108        8.99709847
     -1.58601884        4.57842738        6.42651409
      0.00000634        3.66273531        8.99709847
      1.58600616        4.57842738        6.42651409
      3.17203134        3.66273531        8.99709847
      4.75803116        4.57842738        6.42651409
      6.34405634        3.66273531        8.99709847
      7.93005616        4.57842738        6.42651409
      9.51608134        3.66273531        8.99709847
     -3.17203134        7.32548161        6.42651409
     -1.58600616        6.40978954        8.99709847
     -0.00000634        7.32548161        6.42651409
      1.58601884        6.40978954        8.99709847
      3.17201866        7.32548161        6.42651409
      4.75804384        6.40978954        8.99709847
      6.34404366        7.32548161        6.42651409
      7.93006884        6.40978954        8.99709847
     -4.75804384       10.07253584        6.42651409
     -3.17201866        9.15684378        8.99709847
     -1.58601884       10.07253584        6.42651409
      0.00000634        9.15684378        8.99709847
      1.58600616       10.07253584        6.42651409
      3.17203134        9.15684378        8.99709847
      4.75803116       10.07253584        6.42651409
      6.34405634        9.15684378        8.99709847
     -0.00000634        1.83137315       11.56771827
      1.58601884        0.91568108       14.13830266
      3.17201866        1.83137315       11.56771827
      4.75804384        0.91568108       14.13830266
      6.34404366        1.83137315       11.56771827
      7.93006884        0.91568108       14.13830266
      9.51606866        1.83137315       11.56771827
     11.10209384        0.91568108       14.13830266
     -1.58601884        4.57842738       11.56771827
      0.00000634        3.66273531       14.13830266
      1.58600616        4.57842738       11.56771827
      3.17203134        3.66273531       14.13830266
      4.75803116        4.57842738       11.56771827
      6.34405634        3.66273531       14.13830266
      7.93005616        4.57842738       11.56771827
      9.51608134        3.66273531       14.13830266
     -3.17203134        7.32548161       11.56771827
     -1.58600616        6.40978954       14.13830266
     -0.00000634        7.32548161       11.56771827
      1.58601884        6.40978954       14.13830266
      3.17201866        7.32548161       11.56771827
      4.75804384        6.40978954       14.13830266
      6.34404366        7.32548161       11.56771827
      7.93006884        6.40978954       14.13830266
     -4.75804384       10.07253584       11.56771827
     -3.17201866        9.15684378       14.13830266
     -1.58601884       10.07253584       11.56771827
      0.00000634        9.15684378       14.13830266
      1.58600616       10.07253584       11.56771827
      3.17203134        9.15684378       14.13830266
      4.75803116       10.07253584       11.56771827
      6.34405634        9.15684378       14.13830266
 3.13 5.1 16.0
