# Mg54
1.000000
      9.51610000        0.00000000        0.00000000
     -4.75805000        8.24118434        0.00000000
      0.00000000        0.00000000       15.42360000
 Mg
    54
Cartesian
      0.00000000        1.83137247        1.28529486
      1.58601508        0.91568623        3.85590000
      3.17203016        1.83137247        1.28529486
      4.75805476        0.91568623        3.85590000
      6.34406984        1.83137247        1.28529486
      7.93008492        0.91568623        3.85590000
     -1.58601984        4.57843941        1.28529486
      0.00000000        3.66274494        3.85590000
      1.58601032        4.57843941        1.28529486
      3.17203968        3.66274494        3.85590000
      4.75805000        4.57843941        1.28529486
      6.34406984        3.66274494        3.85590000
     -3.17203492        7.32549811        1.28529486
     -1.58601984        6.40981188        3.85590000
     -0.00000476        7.32549811        1.28529486
      1.58601984        6.40981188        3.85590000
      3.17203492        7.32549811        1.28529486
      4.75805000        6.40981188        3.85590000
      0.00000000        1.83137247        6.42650514
      1.58601508        0.91568623        8.99709486
      3.17203016        1.83137247        6.42650514
      4.75805476        0.91568623        8.99709486
      6.34406984        1.83137247        6.42650514
      7.93008492        0.91568623        8.99709486
     -1.58601984        4.57843941        6.42650514
      0.00000000        3.66274494        8.99709486
      1.58601032        4.57843941        6.42650514
      3.17203968        3.66274494        8.99709486
      4.75805000        4.57843941        6.42650514
      6.34406984        3.66274494        8.99709486
     -3.17203492        7.32549811        6.42650514
     -1.58601984        6.40981188        8.99709486
     -0.00000476        7.32549811        6.42650514
      1.58601984        6.40981188        8.99709486
      3.17203492        7.32549811        6.42650514
      4.75805000        6.40981188        8.99709486
      0.00000000        1.83137247       11.56770000
      1.58601508        0.91568623       14.13830514
      3.17203016        1.83137247       11.56770000
      4.75805476        0.91568623       14.13830514
      6.34406984        1.83137247       11.56770000
      7.93008492        0.91568623       14.13830514
     -1.58601984        4.57843941       11.56770000
      0.00000000        3.66274494       14.13830514
      1.58601032        4.57843941       11.56770000
      3.17203968        3.66274494       14.13830514
      4.75805000        4.57843941       11.56770000
      6.34406984        3.66274494       14.13830514
     -3.17203492        7.32549811       11.56770000
     -1.58601984        6.40981188       14.13830514
     -0.00000476        7.32549811       11.56770000
      1.58601984        6.40981188       14.13830514
      3.17203492        7.32549811       11.56770000
      4.75805000        6.40981188       14.13830514
