# Li96
1.000000
     13.75720000        0.00000000        0.00000000
      0.00000000       13.75720000        0.00000000
      0.00000000        0.00000000       30.31790000
 Li
    97
Cartesian
      0.00000000        0.00000000        0.00000000
      1.71965000        1.71965000        1.71965344
      3.43930000        0.00000000        0.00000000
      5.15895000        1.71965000        1.71965344
      6.87860000        0.00000000        0.00000000
      8.59825000        1.71965000        1.71965344
     10.31790000        0.00000000        0.00000000
     12.03755000        1.71965000        1.71965344
      0.00000000        3.43930000        0.00000000
      1.71965000        5.15895000        1.71965344
      3.43930000        3.43930000        0.00000000
      5.15895000        5.15895000        1.71965344
      6.87860000        3.43930000        0.00000000
      8.59825000        5.15895000        1.71965344
     10.31790000        3.43930000        0.00000000
     12.03755000        5.15895000        1.71965344
      0.00000000        6.87860000        0.00000000
      1.71965000        8.59825000        1.71965344
      3.43930000        6.87860000        0.00000000
      5.15895000        8.59825000        1.71965344
      6.87860000        6.87860000        0.00000000
      8.59825000        8.59825000        1.71965344
     10.31790000        6.87860000        0.00000000
     12.03755000        8.59825000        1.71965344
     13.75720000       10.31790000        0.00000000
      1.71965000       12.03755000        1.71965344
      3.43930000       10.31790000        0.00000000
      5.15895000       12.03755000        1.71965344
      6.87860000       10.31790000        0.00000000
      8.59825000       12.03755000        1.71965344
     10.31790000       10.31790000        0.00000000
     12.03755000       12.03755000        1.71965344
      0.00000000        0.00000000        3.43929656
      1.71965000        1.71965000        5.15895000
      3.43930000        0.00000000        3.43929656
      5.15895000        1.71965000        5.15895000
      6.87860000        0.00000000        3.43929656
      8.59825000        1.71965000        5.15895000
     10.31790000        0.00000000        3.43929656
     12.03755000        1.71965000        5.15895000
      0.00000000        3.43930000        3.43929656
      1.71965000        5.15895000        5.15895000
      3.43930000        3.43930000        3.43929656
      5.15895000        5.15895000        5.15895000
      6.87860000        3.43930000        3.43929656
      8.59825000        5.15895000        5.15895000
     10.31790000        3.43930000        3.43929656
     12.03755000        5.15895000        5.15895000
     13.75720000        6.87860000        3.43929656
      1.71965000        8.59825000        5.15895000
      3.43930000        6.87860000        3.43929656
      5.15895000        8.59825000        5.15895000
      6.87860000        6.87860000        3.43929656
      8.59825000        8.59825000        5.15895000
     10.31790000        6.87860000        3.43929656
     12.03755000        8.59825000        5.15895000
     13.75720000       10.31790000        3.43929656
      1.71965000       12.03755000        5.15895000
      3.43930000       10.31790000        3.43929656
      5.15895000       12.03755000        5.15895000
      6.87860000       10.31790000        3.43929656
      8.59825000       12.03755000        5.15895000
     10.31790000       10.31790000        3.43929656
     12.03755000       12.03755000        5.15895000
      0.00000000        0.00000000        6.87860344
      1.71965000        1.71965000        8.59824656
      3.43930000        0.00000000        6.87860344
      5.15895000        1.71965000        8.59824656
      6.87860000        0.00000000        6.87860344
      8.59825000        1.71965000        8.59824656
     10.31790000        0.00000000        6.87860344
     12.03755000        1.71965000        8.59824656
     13.75720000        3.43930000        6.87860344
      1.71965000        5.15895000        8.59824656
      3.43930000        3.43930000        6.87860344
      5.15895000        5.15895000        8.59824656
      6.87860000        3.43930000        6.87860344
      8.59825000        5.15895000        8.59824656
     10.31790000        3.43930000        6.87860344
     12.03755000        5.15895000        8.59824656
      0.00000000        6.87860000        6.87860344
      1.71965000        8.59825000        8.59824656
      3.43930000        6.87860000        6.87860344
      5.15895000        8.59825000        8.59824656
      6.87860000        6.87860000        6.87860344
      8.59825000        8.59825000        8.59824656
     10.31790000        6.87860000        6.87860344
     12.03755000        8.59825000        8.59824656
      0.00000000       10.31790000        6.87860344
      1.71965000       12.03755000        8.59824656
      3.43930000       10.31790000        6.87860344
      5.15895000       12.03755000        8.59824656
      6.87860000       10.31790000        6.87860344
      8.59825000       12.03755000        8.59824656
     10.31790000       10.31790000        6.87860344
     12.03755000       12.03755000        8.59824656
7 7 10
