Prussian White, adapted from Crystallogr
   1.00000000000000     
    10.4000485769297306    0.0000000000000000    0.0000000000000000
     0.0000000000000000   10.4000485769297306    0.0000000000000000
     0.0000000000000000    0.0000000000000000   10.4000485769297306
   Fe   Fe   C    N    Na
     4     4    24    24     8
Direct
 -0.0000000000000000 -0.0000000000000000  0.5000000000000000
  0.5000000000000000 -0.0000000000000000  0.0000000000000000
 -0.0000000000000000  0.5000000000000000 -0.0000000000000000
  0.5000000000000000  0.5000000000000000  0.5000000000000000
 -0.0000000000000000 -0.0000000000000000  0.0000000000000000
 -0.0000000000000000  0.5000000000000000  0.5000000000000000
  0.5000000000000000 -0.0000000000000000  0.5000000000000000
  0.5000000000000000  0.5000000000000000 -0.0000000000000000
 -0.0000000000000000 -0.0000000000000000  0.1797262800780784
 -0.0000000000000000 -0.0000000000000000  0.8202736909219157
  0.1830386183305267 -0.0000000000000000  0.0000000000000000
  0.8169613526694673 -0.0000000000000000 -0.0000000000000000
 -0.0000000000000000  0.1797262800780784 -0.0000000000000000
 -0.0000000000000000  0.8202736909219157  0.0000000000000000
 -0.0000000000000000  0.5000000000000000  0.6797263090780843
 -0.0000000000000000  0.5000000000000000  0.3202737199219216
  0.1830386183305267  0.5000000000000000  0.5000000000000000
  0.8169613526694673  0.5000000000000000  0.5000000000000000
 -0.0000000000000000  0.6797263090780843  0.5000000000000000
 -0.0000000000000000  0.3202737199219216  0.5000000000000000
  0.5000000000000000 -0.0000000000000000  0.6797263090780843
  0.5000000000000000 -0.0000000000000000  0.3202737199219216
  0.6830386473305327 -0.0000000000000000  0.5000000000000000
  0.3169613816694734 -0.0000000000000000  0.5000000000000000
  0.5000000000000000  0.1797262800780784  0.5000000000000000
  0.5000000000000000  0.8202736909219157  0.5000000000000000
  0.5000000000000000  0.5000000000000000  0.1797262800780784
  0.5000000000000000  0.5000000000000000  0.8202736909219157
  0.6830386473305327  0.5000000000000000  0.0000000000000000
  0.3169613816694734  0.5000000000000000 -0.0000000000000000
  0.5000000000000000  0.6797263090780843  0.0000000000000000
  0.5000000000000000  0.3202737199219216 -0.0000000000000000
 -0.0000000000000000 -0.0000000000000000  0.2935779652636004
 -0.0000000000000000 -0.0000000000000000  0.7064220637363985
  0.2962314656002627 -0.0000000000000000 -0.0000000000000000
  0.7037685633997361 -0.0000000000000000 -0.0000000000000000
 -0.0000000000000000  0.2935779652636004 -0.0000000000000000
 -0.0000000000000000  0.7064220637363985 -0.0000000000000000
 -0.0000000000000000  0.5000000000000000  0.7935779362636015
 -0.0000000000000000  0.5000000000000000  0.2064220347363996
  0.2962314656002627  0.5000000000000000  0.5000000000000000
  0.7037685633997361  0.5000000000000000  0.5000000000000000
 -0.0000000000000000  0.7935779362636015  0.5000000000000000
 -0.0000000000000000  0.2064220347363996  0.5000000000000000
  0.5000000000000000 -0.0000000000000000  0.7935779362636015
  0.5000000000000000 -0.0000000000000000  0.2064220347363996
  0.7962314366002639 -0.0000000000000000  0.5000000000000000
  0.2037685343997373 -0.0000000000000000  0.5000000000000000
  0.5000000000000000  0.2935779652636004  0.5000000000000000
  0.5000000000000000  0.7064220637363985  0.5000000000000000
  0.5000000000000000  0.5000000000000000  0.2935779652636004
  0.5000000000000000  0.5000000000000000  0.7064220637363985
  0.7962314366002639  0.5000000000000000  0.0000000000000000
  0.2037685343997373  0.5000000000000000  0.0000000000000000
  0.5000000000000000  0.7935779362636015 -0.0000000000000000
  0.5000000000000000  0.2064220347363996  0.0000000000000000
 -0.0000000000000000  0.2500000000000000  0.2500000000000000
 -0.0000000000000000  0.7500000000000000  0.2500000000000000
  0.5000000000000000  0.2500000000000000  0.2500000000000000
  0.5000000000000000  0.7500000000000000  0.2500000000000000
 -0.0000000000000000  0.2500000000000000  0.7500000000000000
 -0.0000000000000000  0.7500000000000000  0.7500000000000000
  0.5000000000000000  0.2500000000000000  0.7500000000000000
  0.5000000000000000  0.7500000000000000  0.7500000000000000
 
  0.00000000E+00  0.00000000E+00  0.00000000E+00
  0.00000000E+00  0.00000000E+00  0.00000000E+00
  0.00000000E+00  0.00000000E+00  0.00000000E+00
  0.00000000E+00  0.00000000E+00  0.00000000E+00
  0.00000000E+00  0.00000000E+00  0.00000000E+00
  0.00000000E+00  0.00000000E+00  0.00000000E+00
  0.00000000E+00  0.00000000E+00  0.00000000E+00
  0.00000000E+00  0.00000000E+00  0.00000000E+00
  0.00000000E+00  0.00000000E+00  0.00000000E+00
  0.00000000E+00  0.00000000E+00  0.00000000E+00
  0.00000000E+00  0.00000000E+00  0.00000000E+00
  0.00000000E+00  0.00000000E+00  0.00000000E+00
  0.00000000E+00  0.00000000E+00  0.00000000E+00
  0.00000000E+00  0.00000000E+00  0.00000000E+00
  0.00000000E+00  0.00000000E+00  0.00000000E+00
  0.00000000E+00  0.00000000E+00  0.00000000E+00
  0.00000000E+00  0.00000000E+00  0.00000000E+00
  0.00000000E+00  0.00000000E+00  0.00000000E+00
  0.00000000E+00  0.00000000E+00  0.00000000E+00
  0.00000000E+00  0.00000000E+00  0.00000000E+00
  0.00000000E+00  0.00000000E+00  0.00000000E+00
  0.00000000E+00  0.00000000E+00  0.00000000E+00
  0.00000000E+00  0.00000000E+00  0.00000000E+00
  0.00000000E+00  0.00000000E+00  0.00000000E+00
  0.00000000E+00  0.00000000E+00  0.00000000E+00
  0.00000000E+00  0.00000000E+00  0.00000000E+00
  0.00000000E+00  0.00000000E+00  0.00000000E+00
  0.00000000E+00  0.00000000E+00  0.00000000E+00
  0.00000000E+00  0.00000000E+00  0.00000000E+00
  0.00000000E+00  0.00000000E+00  0.00000000E+00
  0.00000000E+00  0.00000000E+00  0.00000000E+00
  0.00000000E+00  0.00000000E+00  0.00000000E+00
  0.00000000E+00  0.00000000E+00  0.00000000E+00
  0.00000000E+00  0.00000000E+00  0.00000000E+00
  0.00000000E+00  0.00000000E+00  0.00000000E+00
  0.00000000E+00  0.00000000E+00  0.00000000E+00
  0.00000000E+00  0.00000000E+00  0.00000000E+00
  0.00000000E+00  0.00000000E+00  0.00000000E+00
  0.00000000E+00  0.00000000E+00  0.00000000E+00
  0.00000000E+00  0.00000000E+00  0.00000000E+00
  0.00000000E+00  0.00000000E+00  0.00000000E+00
  0.00000000E+00  0.00000000E+00  0.00000000E+00
  0.00000000E+00  0.00000000E+00  0.00000000E+00
  0.00000000E+00  0.00000000E+00  0.00000000E+00
  0.00000000E+00  0.00000000E+00  0.00000000E+00
  0.00000000E+00  0.00000000E+00  0.00000000E+00
  0.00000000E+00  0.00000000E+00  0.00000000E+00
  0.00000000E+00  0.00000000E+00  0.00000000E+00
  0.00000000E+00  0.00000000E+00  0.00000000E+00
  0.00000000E+00  0.00000000E+00  0.00000000E+00
  0.00000000E+00  0.00000000E+00  0.00000000E+00
  0.00000000E+00  0.00000000E+00  0.00000000E+00
  0.00000000E+00  0.00000000E+00  0.00000000E+00
  0.00000000E+00  0.00000000E+00  0.00000000E+00
  0.00000000E+00  0.00000000E+00  0.00000000E+00
  0.00000000E+00  0.00000000E+00  0.00000000E+00
  0.00000000E+00  0.00000000E+00  0.00000000E+00
  0.00000000E+00  0.00000000E+00  0.00000000E+00
  0.00000000E+00  0.00000000E+00  0.00000000E+00
  0.00000000E+00  0.00000000E+00  0.00000000E+00
  0.00000000E+00  0.00000000E+00  0.00000000E+00
  0.00000000E+00  0.00000000E+00  0.00000000E+00
  0.00000000E+00  0.00000000E+00  0.00000000E+00
  0.00000000E+00  0.00000000E+00  0.00000000E+00
