# Mg8 Sc16 Se32
1.000000
     11.18238912        0.00000000        0.00000000
      0.00000000       11.18238912        0.00000000
      0.00000000        0.00000000       11.18238912
 Mg  Sc  Se
     8      16      32
Cartesian
      2.79559728        2.79559728        2.79559728
      5.59119456        0.00000000        5.59119456
      2.79559728        8.38679184        8.38679184
      5.59119456        5.59119456        0.00000000
      8.38679184        2.79559728        8.38679184
      0.00000000        0.00000000        0.00000000
      8.38679184        8.38679184        2.79559728
      0.00000000        5.59119456        5.59119456
      1.39779864        9.78459048        4.19339592
      4.19339592        1.39779864        9.78459048
      4.19339592        4.19339592        6.98899320
      1.39779864        1.39779864        6.98899320
      1.39779864        4.19339592        9.78459048
      4.19339592        6.98899320        4.19339592
      4.19339592        9.78459048        1.39779864
      1.39779864        6.98899320        1.39779864
      6.98899320        9.78459048        9.78459048
      9.78459048        1.39779864        4.19339592
      9.78459048        4.19339592        1.39779864
      6.98899320        1.39779864        1.39779864
      6.98899320        4.19339592        4.19339592
      9.78459048        6.98899320        9.78459048
      9.78459048        9.78459048        6.98899320
      6.98899320        6.98899320        6.98899320
      4.27536261        1.31583195        1.31583195
      6.90702651        4.27536261        6.90702651
      6.90702651        1.31583195        9.86655717
      4.27536261        4.27536261        4.27536261
      4.11142923        1.47976533        7.07095989
      1.47976533        9.70262379        1.47976533
      1.47976533        1.47976533        9.70262379
      4.11142923        9.70262379        4.11142923
      4.27536261        6.90702651        6.90702651
      6.90702651        9.86655717        1.31583195
      6.90702651        6.90702651        4.27536261
      4.27536261        9.86655717        9.86655717
      4.11142923        7.07095989        1.47976533
      1.47976533        4.11142923        7.07095989
      1.47976533        7.07095989        4.11142923
      4.11142923        4.11142923        9.70262379
      9.86655717        1.31583195        6.90702651
      1.31583195        4.27536261        1.31583195
      1.31583195        1.31583195        4.27536261
      9.86655717        4.27536261        9.86655717
      9.70262379        1.47976533        1.47976533
      7.07095989        9.70262379        7.07095989
      7.07095989        1.47976533        4.11142923
      9.70262379        9.70262379        9.70262379
      9.86655717        6.90702651        1.31583195
      1.31583195        9.86655717        6.90702651
      1.31583195        6.90702651        9.86655717
      9.86655717        9.86655717        4.27536261
      9.70262379        7.07095989        7.07095989
      7.07095989        4.11142923        1.47976533
      7.07095989        7.07095989        9.70262379
      9.70262379        4.11142923        4.11142923
