# Mg8 Sc16 Se32
1.000000
     33.54716736        0.00000000        0.00000000
      0.00000000       33.54716736        0.00000000
      0.00000000        0.00000000       33.54716736
 Mg  Sc  Se
   216     432     864
Cartesian
      2.79559728        2.79559728        2.79559728
      5.59119456        0.00000000        5.59119456
      2.79559728        8.38679184        8.38679184
      5.59119456        5.59119456        0.00000000
      8.38679184        2.79559728        8.38679184
      0.00000000        0.00000000        0.00000000
      8.38679184        8.38679184        2.79559728
      0.00000000        5.59119456        5.59119456
     13.97798640        2.79559728        2.79559728
     16.77358368        0.00000000        5.59119456
     13.97798640        8.38679184        8.38679184
     16.77358368        5.59119456        0.00000000
     19.56918096        2.79559728        8.38679184
     11.18238912        0.00000000        0.00000000
     19.56918096        8.38679184        2.79559728
     11.18238912        5.59119456        5.59119456
     25.16037552        2.79559728        2.79559728
     27.95597280        0.00000000        5.59119456
     25.16037552        8.38679184        8.38679184
     27.95597280        5.59119456        0.00000000
     30.75157008        2.79559728        8.38679184
     22.36477824        0.00000000        0.00000000
     30.75157008        8.38679184        2.79559728
     22.36477824        5.59119456        5.59119456
      2.79559728       13.97798640        2.79559728
      5.59119456       11.18238912        5.59119456
      2.79559728       19.56918096        8.38679184
      5.59119456       16.77358368        0.00000000
      8.38679184       13.97798640        8.38679184
      0.00000000       11.18238912        0.00000000
      8.38679184       19.56918096        2.79559728
      0.00000000       16.77358368        5.59119456
     13.97798640       13.97798640        2.79559728
     16.77358368       11.18238912        5.59119456
     13.97798640       19.56918096        8.38679184
     16.77358368       16.77358368        0.00000000
     19.56918096       13.97798640        8.38679184
     11.18238912       11.18238912        0.00000000
     19.56918096       19.56918096        2.79559728
     11.18238912       16.77358368        5.59119456
     25.16037552       13.97798640        2.79559728
     27.95597280       11.18238912        5.59119456
     25.16037552       19.56918096        8.38679184
     27.95597280       16.77358368        0.00000000
     30.75157008       13.97798640        8.38679184
     22.36477824       11.18238912        0.00000000
     30.75157008       19.56918096        2.79559728
     22.36477824       16.77358368        5.59119456
      2.79559728       25.16037552        2.79559728
      5.59119456       22.36477824        5.59119456
      2.79559728       30.75157008        8.38679184
      5.59119456       27.95597280        0.00000000
      8.38679184       25.16037552        8.38679184
      0.00000000       22.36477824        0.00000000
      8.38679184       30.75157008        2.79559728
      0.00000000       27.95597280        5.59119456
     13.97798640       25.16037552        2.79559728
     16.77358368       22.36477824        5.59119456
     13.97798640       30.75157008        8.38679184
     16.77358368       27.95597280        0.00000000
     19.56918096       25.16037552        8.38679184
     11.18238912       22.36477824        0.00000000
     19.56918096       30.75157008        2.79559728
     11.18238912       27.95597280        5.59119456
     25.16037552       25.16037552        2.79559728
     27.95597280       22.36477824        5.59119456
     25.16037552       30.75157008        8.38679184
     27.95597280       27.95597280        0.00000000
     30.75157008       25.16037552        8.38679184
     22.36477824       22.36477824        0.00000000
     30.75157008       30.75157008        2.79559728
     22.36477824       27.95597280        5.59119456
      2.79559728        2.79559728       13.97798640
      5.59119456        0.00000000       16.77358368
      2.79559728        8.38679184       19.56918096
      5.59119456        5.59119456       11.18238912
      8.38679184        2.79559728       19.56918096
      0.00000000        0.00000000       11.18238912
      8.38679184        8.38679184       13.97798640
      0.00000000        5.59119456       16.77358368
     13.97798640        2.79559728       13.97798640
     16.77358368        0.00000000       16.77358368
     13.97798640        8.38679184       19.56918096
     16.77358368        5.59119456       11.18238912
     19.56918096        2.79559728       19.56918096
     11.18238912        0.00000000       11.18238912
     19.56918096        8.38679184       13.97798640
     11.18238912        5.59119456       16.77358368
     25.16037552        2.79559728       13.97798640
     27.95597280        0.00000000       16.77358368
     25.16037552        8.38679184       19.56918096
     27.95597280        5.59119456       11.18238912
     30.75157008        2.79559728       19.56918096
     22.36477824        0.00000000       11.18238912
     30.75157008        8.38679184       13.97798640
     22.36477824        5.59119456       16.77358368
      2.79559728       13.97798640       13.97798640
      5.59119456       11.18238912       16.77358368
      2.79559728       19.56918096       19.56918096
      5.59119456       16.77358368       11.18238912
      8.38679184       13.97798640       19.56918096
      0.00000000       11.18238912       11.18238912
      8.38679184       19.56918096       13.97798640
      0.00000000       16.77358368       16.77358368
     13.97798640       13.97798640       13.97798640
     16.77358368       11.18238912       16.77358368
     13.97798640       19.56918096       19.56918096
     16.77358368       16.77358368       11.18238912
     19.56918096       13.97798640       19.56918096
     11.18238912       11.18238912       11.18238912
     19.56918096       19.56918096       13.97798640
     11.18238912       16.77358368       16.77358368
     25.16037552       13.97798640       13.97798640
     27.95597280       11.18238912       16.77358368
     25.16037552       19.56918096       19.56918096
     27.95597280       16.77358368       11.18238912
     30.75157008       13.97798640       19.56918096
     22.36477824       11.18238912       11.18238912
     30.75157008       19.56918096       13.97798640
     22.36477824       16.77358368       16.77358368
      2.79559728       25.16037552       13.97798640
      5.59119456       22.36477824       16.77358368
      2.79559728       30.75157008       19.56918096
      5.59119456       27.95597280       11.18238912
      8.38679184       25.16037552       19.56918096
      0.00000000       22.36477824       11.18238912
      8.38679184       30.75157008       13.97798640
      0.00000000       27.95597280       16.77358368
     13.97798640       25.16037552       13.97798640
     16.77358368       22.36477824       16.77358368
     13.97798640       30.75157008       19.56918096
     16.77358368       27.95597280       11.18238912
     19.56918096       25.16037552       19.56918096
     11.18238912       22.36477824       11.18238912
     19.56918096       30.75157008       13.97798640
     11.18238912       27.95597280       16.77358368
     25.16037552       25.16037552       13.97798640
     27.95597280       22.36477824       16.77358368
     25.16037552       30.75157008       19.56918096
     27.95597280       27.95597280       11.18238912
     30.75157008       25.16037552       19.56918096
     22.36477824       22.36477824       11.18238912
     30.75157008       30.75157008       13.97798640
     22.36477824       27.95597280       16.77358368
      2.79559728        2.79559728       25.16037552
      5.59119456        0.00000000       27.95597280
      2.79559728        8.38679184       30.75157008
      5.59119456        5.59119456       22.36477824
      8.38679184        2.79559728       30.75157008
      0.00000000        0.00000000       22.36477824
      8.38679184        8.38679184       25.16037552
      0.00000000        5.59119456       27.95597280
     13.97798640        2.79559728       25.16037552
     16.77358368        0.00000000       27.95597280
     13.97798640        8.38679184       30.75157008
     16.77358368        5.59119456       22.36477824
     19.56918096        2.79559728       30.75157008
     11.18238912        0.00000000       22.36477824
     19.56918096        8.38679184       25.16037552
     11.18238912        5.59119456       27.95597280
     25.16037552        2.79559728       25.16037552
     27.95597280        0.00000000       27.95597280
     25.16037552        8.38679184       30.75157008
     27.95597280        5.59119456       22.36477824
     30.75157008        2.79559728       30.75157008
     22.36477824        0.00000000       22.36477824
     30.75157008        8.38679184       25.16037552
     22.36477824        5.59119456       27.95597280
      2.79559728       13.97798640       25.16037552
      5.59119456       11.18238912       27.95597280
      2.79559728       19.56918096       30.75157008
      5.59119456       16.77358368       22.36477824
      8.38679184       13.97798640       30.75157008
      0.00000000       11.18238912       22.36477824
      8.38679184       19.56918096       25.16037552
      0.00000000       16.77358368       27.95597280
     13.97798640       13.97798640       25.16037552
     16.77358368       11.18238912       27.95597280
     13.97798640       19.56918096       30.75157008
     16.77358368       16.77358368       22.36477824
     19.56918096       13.97798640       30.75157008
     11.18238912       11.18238912       22.36477824
     19.56918096       19.56918096       25.16037552
     11.18238912       16.77358368       27.95597280
     25.16037552       13.97798640       25.16037552
     27.95597280       11.18238912       27.95597280
     25.16037552       19.56918096       30.75157008
     27.95597280       16.77358368       22.36477824
     30.75157008       13.97798640       30.75157008
     22.36477824       11.18238912       22.36477824
     30.75157008       19.56918096       25.16037552
     22.36477824       16.77358368       27.95597280
      2.79559728       25.16037552       25.16037552
      5.59119456       22.36477824       27.95597280
      2.79559728       30.75157008       30.75157008
      5.59119456       27.95597280       22.36477824
      8.38679184       25.16037552       30.75157008
      0.00000000       22.36477824       22.36477824
      8.38679184       30.75157008       25.16037552
      0.00000000       27.95597280       27.95597280
     13.97798640       25.16037552       25.16037552
     16.77358368       22.36477824       27.95597280
     13.97798640       30.75157008       30.75157008
     16.77358368       27.95597280       22.36477824
     19.56918096       25.16037552       30.75157008
     11.18238912       22.36477824       22.36477824
     19.56918096       30.75157008       25.16037552
     11.18238912       27.95597280       27.95597280
     25.16037552       25.16037552       25.16037552
     27.95597280       22.36477824       27.95597280
     25.16037552       30.75157008       30.75157008
     27.95597280       27.95597280       22.36477824
     30.75157008       25.16037552       30.75157008
     22.36477824       22.36477824       22.36477824
     30.75157008       30.75157008       25.16037552
     22.36477824       27.95597280       27.95597280
      1.39779864        9.78459048        4.19339592
      4.19339592        1.39779864        9.78459048
      4.19339592        4.19339592        6.98899320
      1.39779864        1.39779864        6.98899320
      1.39779864        4.19339592        9.78459048
      4.19339592        6.98899320        4.19339592
      4.19339592        9.78459048        1.39779864
      1.39779864        6.98899320        1.39779864
      6.98899320        9.78459048        9.78459048
      9.78459048        1.39779864        4.19339592
      9.78459048        4.19339592        1.39779864
      6.98899320        1.39779864        1.39779864
      6.98899320        4.19339592        4.19339592
      9.78459048        6.98899320        9.78459048
      9.78459048        9.78459048        6.98899320
      6.98899320        6.98899320        6.98899320
     12.58018776        9.78459048        4.19339592
     15.37578504        1.39779864        9.78459048
     15.37578504        4.19339592        6.98899320
     12.58018776        1.39779864        6.98899320
     12.58018776        4.19339592        9.78459048
     15.37578504        6.98899320        4.19339592
     15.37578504        9.78459048        1.39779864
     12.58018776        6.98899320        1.39779864
     18.17138232        9.78459048        9.78459048
     20.96697960        1.39779864        4.19339592
     20.96697960        4.19339592        1.39779864
     18.17138232        1.39779864        1.39779864
     18.17138232        4.19339592        4.19339592
     20.96697960        6.98899320        9.78459048
     20.96697960        9.78459048        6.98899320
     18.17138232        6.98899320        6.98899320
     23.76257688        9.78459048        4.19339592
     26.55817416        1.39779864        9.78459048
     26.55817416        4.19339592        6.98899320
     23.76257688        1.39779864        6.98899320
     23.76257688        4.19339592        9.78459048
     26.55817416        6.98899320        4.19339592
     26.55817416        9.78459048        1.39779864
     23.76257688        6.98899320        1.39779864
     29.35377144        9.78459048        9.78459048
     32.14936872        1.39779864        4.19339592
     32.14936872        4.19339592        1.39779864
     29.35377144        1.39779864        1.39779864
     29.35377144        4.19339592        4.19339592
     32.14936872        6.98899320        9.78459048
     32.14936872        9.78459048        6.98899320
     29.35377144        6.98899320        6.98899320
      1.39779864       20.96697960        4.19339592
      4.19339592       12.58018776        9.78459048
      4.19339592       15.37578504        6.98899320
      1.39779864       12.58018776        6.98899320
      1.39779864       15.37578504        9.78459048
      4.19339592       18.17138232        4.19339592
      4.19339592       20.96697960        1.39779864
      1.39779864       18.17138232        1.39779864
      6.98899320       20.96697960        9.78459048
      9.78459048       12.58018776        4.19339592
      9.78459048       15.37578504        1.39779864
      6.98899320       12.58018776        1.39779864
      6.98899320       15.37578504        4.19339592
      9.78459048       18.17138232        9.78459048
      9.78459048       20.96697960        6.98899320
      6.98899320       18.17138232        6.98899320
     12.58018776       20.96697960        4.19339592
     15.37578504       12.58018776        9.78459048
     15.37578504       15.37578504        6.98899320
     12.58018776       12.58018776        6.98899320
     12.58018776       15.37578504        9.78459048
     15.37578504       18.17138232        4.19339592
     15.37578504       20.96697960        1.39779864
     12.58018776       18.17138232        1.39779864
     18.17138232       20.96697960        9.78459048
     20.96697960       12.58018776        4.19339592
     20.96697960       15.37578504        1.39779864
     18.17138232       12.58018776        1.39779864
     18.17138232       15.37578504        4.19339592
     20.96697960       18.17138232        9.78459048
     20.96697960       20.96697960        6.98899320
     18.17138232       18.17138232        6.98899320
     23.76257688       20.96697960        4.19339592
     26.55817416       12.58018776        9.78459048
     26.55817416       15.37578504        6.98899320
     23.76257688       12.58018776        6.98899320
     23.76257688       15.37578504        9.78459048
     26.55817416       18.17138232        4.19339592
     26.55817416       20.96697960        1.39779864
     23.76257688       18.17138232        1.39779864
     29.35377144       20.96697960        9.78459048
     32.14936872       12.58018776        4.19339592
     32.14936872       15.37578504        1.39779864
     29.35377144       12.58018776        1.39779864
     29.35377144       15.37578504        4.19339592
     32.14936872       18.17138232        9.78459048
     32.14936872       20.96697960        6.98899320
     29.35377144       18.17138232        6.98899320
      1.39779864       32.14936872        4.19339592
      4.19339592       23.76257688        9.78459048
      4.19339592       26.55817416        6.98899320
      1.39779864       23.76257688        6.98899320
      1.39779864       26.55817416        9.78459048
      4.19339592       29.35377144        4.19339592
      4.19339592       32.14936872        1.39779864
      1.39779864       29.35377144        1.39779864
      6.98899320       32.14936872        9.78459048
      9.78459048       23.76257688        4.19339592
      9.78459048       26.55817416        1.39779864
      6.98899320       23.76257688        1.39779864
      6.98899320       26.55817416        4.19339592
      9.78459048       29.35377144        9.78459048
      9.78459048       32.14936872        6.98899320
      6.98899320       29.35377144        6.98899320
     12.58018776       32.14936872        4.19339592
     15.37578504       23.76257688        9.78459048
     15.37578504       26.55817416        6.98899320
     12.58018776       23.76257688        6.98899320
     12.58018776       26.55817416        9.78459048
     15.37578504       29.35377144        4.19339592
     15.37578504       32.14936872        1.39779864
     12.58018776       29.35377144        1.39779864
     18.17138232       32.14936872        9.78459048
     20.96697960       23.76257688        4.19339592
     20.96697960       26.55817416        1.39779864
     18.17138232       23.76257688        1.39779864
     18.17138232       26.55817416        4.19339592
     20.96697960       29.35377144        9.78459048
     20.96697960       32.14936872        6.98899320
     18.17138232       29.35377144        6.98899320
     23.76257688       32.14936872        4.19339592
     26.55817416       23.76257688        9.78459048
     26.55817416       26.55817416        6.98899320
     23.76257688       23.76257688        6.98899320
     23.76257688       26.55817416        9.78459048
     26.55817416       29.35377144        4.19339592
     26.55817416       32.14936872        1.39779864
     23.76257688       29.35377144        1.39779864
     29.35377144       32.14936872        9.78459048
     32.14936872       23.76257688        4.19339592
     32.14936872       26.55817416        1.39779864
     29.35377144       23.76257688        1.39779864
     29.35377144       26.55817416        4.19339592
     32.14936872       29.35377144        9.78459048
     32.14936872       32.14936872        6.98899320
     29.35377144       29.35377144        6.98899320
      1.39779864        9.78459048       15.37578504
      4.19339592        1.39779864       20.96697960
      4.19339592        4.19339592       18.17138232
      1.39779864        1.39779864       18.17138232
      1.39779864        4.19339592       20.96697960
      4.19339592        6.98899320       15.37578504
      4.19339592        9.78459048       12.58018776
      1.39779864        6.98899320       12.58018776
      6.98899320        9.78459048       20.96697960
      9.78459048        1.39779864       15.37578504
      9.78459048        4.19339592       12.58018776
      6.98899320        1.39779864       12.58018776
      6.98899320        4.19339592       15.37578504
      9.78459048        6.98899320       20.96697960
      9.78459048        9.78459048       18.17138232
      6.98899320        6.98899320       18.17138232
     12.58018776        9.78459048       15.37578504
     15.37578504        1.39779864       20.96697960
     15.37578504        4.19339592       18.17138232
     12.58018776        1.39779864       18.17138232
     12.58018776        4.19339592       20.96697960
     15.37578504        6.98899320       15.37578504
     15.37578504        9.78459048       12.58018776
     12.58018776        6.98899320       12.58018776
     18.17138232        9.78459048       20.96697960
     20.96697960        1.39779864       15.37578504
     20.96697960        4.19339592       12.58018776
     18.17138232        1.39779864       12.58018776
     18.17138232        4.19339592       15.37578504
     20.96697960        6.98899320       20.96697960
     20.96697960        9.78459048       18.17138232
     18.17138232        6.98899320       18.17138232
     23.76257688        9.78459048       15.37578504
     26.55817416        1.39779864       20.96697960
     26.55817416        4.19339592       18.17138232
     23.76257688        1.39779864       18.17138232
     23.76257688        4.19339592       20.96697960
     26.55817416        6.98899320       15.37578504
     26.55817416        9.78459048       12.58018776
     23.76257688        6.98899320       12.58018776
     29.35377144        9.78459048       20.96697960
     32.14936872        1.39779864       15.37578504
     32.14936872        4.19339592       12.58018776
     29.35377144        1.39779864       12.58018776
     29.35377144        4.19339592       15.37578504
     32.14936872        6.98899320       20.96697960
     32.14936872        9.78459048       18.17138232
     29.35377144        6.98899320       18.17138232
      1.39779864       20.96697960       15.37578504
      4.19339592       12.58018776       20.96697960
      4.19339592       15.37578504       18.17138232
      1.39779864       12.58018776       18.17138232
      1.39779864       15.37578504       20.96697960
      4.19339592       18.17138232       15.37578504
      4.19339592       20.96697960       12.58018776
      1.39779864       18.17138232       12.58018776
      6.98899320       20.96697960       20.96697960
      9.78459048       12.58018776       15.37578504
      9.78459048       15.37578504       12.58018776
      6.98899320       12.58018776       12.58018776
      6.98899320       15.37578504       15.37578504
      9.78459048       18.17138232       20.96697960
      9.78459048       20.96697960       18.17138232
      6.98899320       18.17138232       18.17138232
     12.58018776       20.96697960       15.37578504
     15.37578504       12.58018776       20.96697960
     15.37578504       15.37578504       18.17138232
     12.58018776       12.58018776       18.17138232
     12.58018776       15.37578504       20.96697960
     15.37578504       18.17138232       15.37578504
     15.37578504       20.96697960       12.58018776
     12.58018776       18.17138232       12.58018776
     18.17138232       20.96697960       20.96697960
     20.96697960       12.58018776       15.37578504
     20.96697960       15.37578504       12.58018776
     18.17138232       12.58018776       12.58018776
     18.17138232       15.37578504       15.37578504
     20.96697960       18.17138232       20.96697960
     20.96697960       20.96697960       18.17138232
     18.17138232       18.17138232       18.17138232
     23.76257688       20.96697960       15.37578504
     26.55817416       12.58018776       20.96697960
     26.55817416       15.37578504       18.17138232
     23.76257688       12.58018776       18.17138232
     23.76257688       15.37578504       20.96697960
     26.55817416       18.17138232       15.37578504
     26.55817416       20.96697960       12.58018776
     23.76257688       18.17138232       12.58018776
     29.35377144       20.96697960       20.96697960
     32.14936872       12.58018776       15.37578504
     32.14936872       15.37578504       12.58018776
     29.35377144       12.58018776       12.58018776
     29.35377144       15.37578504       15.37578504
     32.14936872       18.17138232       20.96697960
     32.14936872       20.96697960       18.17138232
     29.35377144       18.17138232       18.17138232
      1.39779864       32.14936872       15.37578504
      4.19339592       23.76257688       20.96697960
      4.19339592       26.55817416       18.17138232
      1.39779864       23.76257688       18.17138232
      1.39779864       26.55817416       20.96697960
      4.19339592       29.35377144       15.37578504
      4.19339592       32.14936872       12.58018776
      1.39779864       29.35377144       12.58018776
      6.98899320       32.14936872       20.96697960
      9.78459048       23.76257688       15.37578504
      9.78459048       26.55817416       12.58018776
      6.98899320       23.76257688       12.58018776
      6.98899320       26.55817416       15.37578504
      9.78459048       29.35377144       20.96697960
      9.78459048       32.14936872       18.17138232
      6.98899320       29.35377144       18.17138232
     12.58018776       32.14936872       15.37578504
     15.37578504       23.76257688       20.96697960
     15.37578504       26.55817416       18.17138232
     12.58018776       23.76257688       18.17138232
     12.58018776       26.55817416       20.96697960
     15.37578504       29.35377144       15.37578504
     15.37578504       32.14936872       12.58018776
     12.58018776       29.35377144       12.58018776
     18.17138232       32.14936872       20.96697960
     20.96697960       23.76257688       15.37578504
     20.96697960       26.55817416       12.58018776
     18.17138232       23.76257688       12.58018776
     18.17138232       26.55817416       15.37578504
     20.96697960       29.35377144       20.96697960
     20.96697960       32.14936872       18.17138232
     18.17138232       29.35377144       18.17138232
     23.76257688       32.14936872       15.37578504
     26.55817416       23.76257688       20.96697960
     26.55817416       26.55817416       18.17138232
     23.76257688       23.76257688       18.17138232
     23.76257688       26.55817416       20.96697960
     26.55817416       29.35377144       15.37578504
     26.55817416       32.14936872       12.58018776
     23.76257688       29.35377144       12.58018776
     29.35377144       32.14936872       20.96697960
     32.14936872       23.76257688       15.37578504
     32.14936872       26.55817416       12.58018776
     29.35377144       23.76257688       12.58018776
     29.35377144       26.55817416       15.37578504
     32.14936872       29.35377144       20.96697960
     32.14936872       32.14936872       18.17138232
     29.35377144       29.35377144       18.17138232
      1.39779864        9.78459048       26.55817416
      4.19339592        1.39779864       32.14936872
      4.19339592        4.19339592       29.35377144
      1.39779864        1.39779864       29.35377144
      1.39779864        4.19339592       32.14936872
      4.19339592        6.98899320       26.55817416
      4.19339592        9.78459048       23.76257688
      1.39779864        6.98899320       23.76257688
      6.98899320        9.78459048       32.14936872
      9.78459048        1.39779864       26.55817416
      9.78459048        4.19339592       23.76257688
      6.98899320        1.39779864       23.76257688
      6.98899320        4.19339592       26.55817416
      9.78459048        6.98899320       32.14936872
      9.78459048        9.78459048       29.35377144
      6.98899320        6.98899320       29.35377144
     12.58018776        9.78459048       26.55817416
     15.37578504        1.39779864       32.14936872
     15.37578504        4.19339592       29.35377144
     12.58018776        1.39779864       29.35377144
     12.58018776        4.19339592       32.14936872
     15.37578504        6.98899320       26.55817416
     15.37578504        9.78459048       23.76257688
     12.58018776        6.98899320       23.76257688
     18.17138232        9.78459048       32.14936872
     20.96697960        1.39779864       26.55817416
     20.96697960        4.19339592       23.76257688
     18.17138232        1.39779864       23.76257688
     18.17138232        4.19339592       26.55817416
     20.96697960        6.98899320       32.14936872
     20.96697960        9.78459048       29.35377144
     18.17138232        6.98899320       29.35377144
     23.76257688        9.78459048       26.55817416
     26.55817416        1.39779864       32.14936872
     26.55817416        4.19339592       29.35377144
     23.76257688        1.39779864       29.35377144
     23.76257688        4.19339592       32.14936872
     26.55817416        6.98899320       26.55817416
     26.55817416        9.78459048       23.76257688
     23.76257688        6.98899320       23.76257688
     29.35377144        9.78459048       32.14936872
     32.14936872        1.39779864       26.55817416
     32.14936872        4.19339592       23.76257688
     29.35377144        1.39779864       23.76257688
     29.35377144        4.19339592       26.55817416
     32.14936872        6.98899320       32.14936872
     32.14936872        9.78459048       29.35377144
     29.35377144        6.98899320       29.35377144
      1.39779864       20.96697960       26.55817416
      4.19339592       12.58018776       32.14936872
      4.19339592       15.37578504       29.35377144
      1.39779864       12.58018776       29.35377144
      1.39779864       15.37578504       32.14936872
      4.19339592       18.17138232       26.55817416
      4.19339592       20.96697960       23.76257688
      1.39779864       18.17138232       23.76257688
      6.98899320       20.96697960       32.14936872
      9.78459048       12.58018776       26.55817416
      9.78459048       15.37578504       23.76257688
      6.98899320       12.58018776       23.76257688
      6.98899320       15.37578504       26.55817416
      9.78459048       18.17138232       32.14936872
      9.78459048       20.96697960       29.35377144
      6.98899320       18.17138232       29.35377144
     12.58018776       20.96697960       26.55817416
     15.37578504       12.58018776       32.14936872
     15.37578504       15.37578504       29.35377144
     12.58018776       12.58018776       29.35377144
     12.58018776       15.37578504       32.14936872
     15.37578504       18.17138232       26.55817416
     15.37578504       20.96697960       23.76257688
     12.58018776       18.17138232       23.76257688
     18.17138232       20.96697960       32.14936872
     20.96697960       12.58018776       26.55817416
     20.96697960       15.37578504       23.76257688
     18.17138232       12.58018776       23.76257688
     18.17138232       15.37578504       26.55817416
     20.96697960       18.17138232       32.14936872
     20.96697960       20.96697960       29.35377144
     18.17138232       18.17138232       29.35377144
     23.76257688       20.96697960       26.55817416
     26.55817416       12.58018776       32.14936872
     26.55817416       15.37578504       29.35377144
     23.76257688       12.58018776       29.35377144
     23.76257688       15.37578504       32.14936872
     26.55817416       18.17138232       26.55817416
     26.55817416       20.96697960       23.76257688
     23.76257688       18.17138232       23.76257688
     29.35377144       20.96697960       32.14936872
     32.14936872       12.58018776       26.55817416
     32.14936872       15.37578504       23.76257688
     29.35377144       12.58018776       23.76257688
     29.35377144       15.37578504       26.55817416
     32.14936872       18.17138232       32.14936872
     32.14936872       20.96697960       29.35377144
     29.35377144       18.17138232       29.35377144
      1.39779864       32.14936872       26.55817416
      4.19339592       23.76257688       32.14936872
      4.19339592       26.55817416       29.35377144
      1.39779864       23.76257688       29.35377144
      1.39779864       26.55817416       32.14936872
      4.19339592       29.35377144       26.55817416
      4.19339592       32.14936872       23.76257688
      1.39779864       29.35377144       23.76257688
      6.98899320       32.14936872       32.14936872
      9.78459048       23.76257688       26.55817416
      9.78459048       26.55817416       23.76257688
      6.98899320       23.76257688       23.76257688
      6.98899320       26.55817416       26.55817416
      9.78459048       29.35377144       32.14936872
      9.78459048       32.14936872       29.35377144
      6.98899320       29.35377144       29.35377144
     12.58018776       32.14936872       26.55817416
     15.37578504       23.76257688       32.14936872
     15.37578504       26.55817416       29.35377144
     12.58018776       23.76257688       29.35377144
     12.58018776       26.55817416       32.14936872
     15.37578504       29.35377144       26.55817416
     15.37578504       32.14936872       23.76257688
     12.58018776       29.35377144       23.76257688
     18.17138232       32.14936872       32.14936872
     20.96697960       23.76257688       26.55817416
     20.96697960       26.55817416       23.76257688
     18.17138232       23.76257688       23.76257688
     18.17138232       26.55817416       26.55817416
     20.96697960       29.35377144       32.14936872
     20.96697960       32.14936872       29.35377144
     18.17138232       29.35377144       29.35377144
     23.76257688       32.14936872       26.55817416
     26.55817416       23.76257688       32.14936872
     26.55817416       26.55817416       29.35377144
     23.76257688       23.76257688       29.35377144
     23.76257688       26.55817416       32.14936872
     26.55817416       29.35377144       26.55817416
     26.55817416       32.14936872       23.76257688
     23.76257688       29.35377144       23.76257688
     29.35377144       32.14936872       32.14936872
     32.14936872       23.76257688       26.55817416
     32.14936872       26.55817416       23.76257688
     29.35377144       23.76257688       23.76257688
     29.35377144       26.55817416       26.55817416
     32.14936872       29.35377144       32.14936872
     32.14936872       32.14936872       29.35377144
     29.35377144       29.35377144       29.35377144
      4.27536261        1.31583195        1.31583195
      6.90702651        4.27536261        6.90702651
      6.90702651        1.31583195        9.86655717
      4.27536261        4.27536261        4.27536261
      4.11142923        1.47976533        7.07095989
      1.47976533        9.70262379        1.47976533
      1.47976533        1.47976533        9.70262379
      4.11142923        9.70262379        4.11142923
      4.27536261        6.90702651        6.90702651
      6.90702651        9.86655717        1.31583195
      6.90702651        6.90702651        4.27536261
      4.27536261        9.86655717        9.86655717
      4.11142923        7.07095989        1.47976533
      1.47976533        4.11142923        7.07095989
      1.47976533        7.07095989        4.11142923
      4.11142923        4.11142923        9.70262379
      9.86655717        1.31583195        6.90702651
      1.31583195        4.27536261        1.31583195
      1.31583195        1.31583195        4.27536261
      9.86655717        4.27536261        9.86655717
      9.70262379        1.47976533        1.47976533
      7.07095989        9.70262379        7.07095989
      7.07095989        1.47976533        4.11142923
      9.70262379        9.70262379        9.70262379
      9.86655717        6.90702651        1.31583195
      1.31583195        9.86655717        6.90702651
      1.31583195        6.90702651        9.86655717
      9.86655717        9.86655717        4.27536261
      9.70262379        7.07095989        7.07095989
      7.07095989        4.11142923        1.47976533
      7.07095989        7.07095989        9.70262379
      9.70262379        4.11142923        4.11142923
     15.45775173        1.31583195        1.31583195
     18.08941563        4.27536261        6.90702651
     18.08941563        1.31583195        9.86655717
     15.45775173        4.27536261        4.27536261
     15.29381835        1.47976533        7.07095989
     12.66215445        9.70262379        1.47976533
     12.66215445        1.47976533        9.70262379
     15.29381835        9.70262379        4.11142923
     15.45775173        6.90702651        6.90702651
     18.08941563        9.86655717        1.31583195
     18.08941563        6.90702651        4.27536261
     15.45775173        9.86655717        9.86655717
     15.29381835        7.07095989        1.47976533
     12.66215445        4.11142923        7.07095989
     12.66215445        7.07095989        4.11142923
     15.29381835        4.11142923        9.70262379
     21.04894629        1.31583195        6.90702651
     12.49822107        4.27536261        1.31583195
     12.49822107        1.31583195        4.27536261
     21.04894629        4.27536261        9.86655717
     20.88501291        1.47976533        1.47976533
     18.25334901        9.70262379        7.07095989
     18.25334901        1.47976533        4.11142923
     20.88501291        9.70262379        9.70262379
     21.04894629        6.90702651        1.31583195
     12.49822107        9.86655717        6.90702651
     12.49822107        6.90702651        9.86655717
     21.04894629        9.86655717        4.27536261
     20.88501291        7.07095989        7.07095989
     18.25334901        4.11142923        1.47976533
     18.25334901        7.07095989        9.70262379
     20.88501291        4.11142923        4.11142923
     26.64014085        1.31583195        1.31583195
     29.27180475        4.27536261        6.90702651
     29.27180475        1.31583195        9.86655717
     26.64014085        4.27536261        4.27536261
     26.47620747        1.47976533        7.07095989
     23.84454357        9.70262379        1.47976533
     23.84454357        1.47976533        9.70262379
     26.47620747        9.70262379        4.11142923
     26.64014085        6.90702651        6.90702651
     29.27180475        9.86655717        1.31583195
     29.27180475        6.90702651        4.27536261
     26.64014085        9.86655717        9.86655717
     26.47620747        7.07095989        1.47976533
     23.84454357        4.11142923        7.07095989
     23.84454357        7.07095989        4.11142923
     26.47620747        4.11142923        9.70262379
     32.23133541        1.31583195        6.90702651
     23.68061019        4.27536261        1.31583195
     23.68061019        1.31583195        4.27536261
     32.23133541        4.27536261        9.86655717
     32.06740203        1.47976533        1.47976533
     29.43573813        9.70262379        7.07095989
     29.43573813        1.47976533        4.11142923
     32.06740203        9.70262379        9.70262379
     32.23133541        6.90702651        1.31583195
     23.68061019        9.86655717        6.90702651
     23.68061019        6.90702651        9.86655717
     32.23133541        9.86655717        4.27536261
     32.06740203        7.07095989        7.07095989
     29.43573813        4.11142923        1.47976533
     29.43573813        7.07095989        9.70262379
     32.06740203        4.11142923        4.11142923
      4.27536261       12.49822107        1.31583195
      6.90702651       15.45775173        6.90702651
      6.90702651       12.49822107        9.86655717
      4.27536261       15.45775173        4.27536261
      4.11142923       12.66215445        7.07095989
      1.47976533       20.88501291        1.47976533
      1.47976533       12.66215445        9.70262379
      4.11142923       20.88501291        4.11142923
      4.27536261       18.08941563        6.90702651
      6.90702651       21.04894629        1.31583195
      6.90702651       18.08941563        4.27536261
      4.27536261       21.04894629        9.86655717
      4.11142923       18.25334901        1.47976533
      1.47976533       15.29381835        7.07095989
      1.47976533       18.25334901        4.11142923
      4.11142923       15.29381835        9.70262379
      9.86655717       12.49822107        6.90702651
      1.31583195       15.45775173        1.31583195
      1.31583195       12.49822107        4.27536261
      9.86655717       15.45775173        9.86655717
      9.70262379       12.66215445        1.47976533
      7.07095989       20.88501291        7.07095989
      7.07095989       12.66215445        4.11142923
      9.70262379       20.88501291        9.70262379
      9.86655717       18.08941563        1.31583195
      1.31583195       21.04894629        6.90702651
      1.31583195       18.08941563        9.86655717
      9.86655717       21.04894629        4.27536261
      9.70262379       18.25334901        7.07095989
      7.07095989       15.29381835        1.47976533
      7.07095989       18.25334901        9.70262379
      9.70262379       15.29381835        4.11142923
     15.45775173       12.49822107        1.31583195
     18.08941563       15.45775173        6.90702651
     18.08941563       12.49822107        9.86655717
     15.45775173       15.45775173        4.27536261
     15.29381835       12.66215445        7.07095989
     12.66215445       20.88501291        1.47976533
     12.66215445       12.66215445        9.70262379
     15.29381835       20.88501291        4.11142923
     15.45775173       18.08941563        6.90702651
     18.08941563       21.04894629        1.31583195
     18.08941563       18.08941563        4.27536261
     15.45775173       21.04894629        9.86655717
     15.29381835       18.25334901        1.47976533
     12.66215445       15.29381835        7.07095989
     12.66215445       18.25334901        4.11142923
     15.29381835       15.29381835        9.70262379
     21.04894629       12.49822107        6.90702651
     12.49822107       15.45775173        1.31583195
     12.49822107       12.49822107        4.27536261
     21.04894629       15.45775173        9.86655717
     20.88501291       12.66215445        1.47976533
     18.25334901       20.88501291        7.07095989
     18.25334901       12.66215445        4.11142923
     20.88501291       20.88501291        9.70262379
     21.04894629       18.08941563        1.31583195
     12.49822107       21.04894629        6.90702651
     12.49822107       18.08941563        9.86655717
     21.04894629       21.04894629        4.27536261
     20.88501291       18.25334901        7.07095989
     18.25334901       15.29381835        1.47976533
     18.25334901       18.25334901        9.70262379
     20.88501291       15.29381835        4.11142923
     26.64014085       12.49822107        1.31583195
     29.27180475       15.45775173        6.90702651
     29.27180475       12.49822107        9.86655717
     26.64014085       15.45775173        4.27536261
     26.47620747       12.66215445        7.07095989
     23.84454357       20.88501291        1.47976533
     23.84454357       12.66215445        9.70262379
     26.47620747       20.88501291        4.11142923
     26.64014085       18.08941563        6.90702651
     29.27180475       21.04894629        1.31583195
     29.27180475       18.08941563        4.27536261
     26.64014085       21.04894629        9.86655717
     26.47620747       18.25334901        1.47976533
     23.84454357       15.29381835        7.07095989
     23.84454357       18.25334901        4.11142923
     26.47620747       15.29381835        9.70262379
     32.23133541       12.49822107        6.90702651
     23.68061019       15.45775173        1.31583195
     23.68061019       12.49822107        4.27536261
     32.23133541       15.45775173        9.86655717
     32.06740203       12.66215445        1.47976533
     29.43573813       20.88501291        7.07095989
     29.43573813       12.66215445        4.11142923
     32.06740203       20.88501291        9.70262379
     32.23133541       18.08941563        1.31583195
     23.68061019       21.04894629        6.90702651
     23.68061019       18.08941563        9.86655717
     32.23133541       21.04894629        4.27536261
     32.06740203       18.25334901        7.07095989
     29.43573813       15.29381835        1.47976533
     29.43573813       18.25334901        9.70262379
     32.06740203       15.29381835        4.11142923
      4.27536261       23.68061019        1.31583195
      6.90702651       26.64014085        6.90702651
      6.90702651       23.68061019        9.86655717
      4.27536261       26.64014085        4.27536261
      4.11142923       23.84454357        7.07095989
      1.47976533       32.06740203        1.47976533
      1.47976533       23.84454357        9.70262379
      4.11142923       32.06740203        4.11142923
      4.27536261       29.27180475        6.90702651
      6.90702651       32.23133541        1.31583195
      6.90702651       29.27180475        4.27536261
      4.27536261       32.23133541        9.86655717
      4.11142923       29.43573813        1.47976533
      1.47976533       26.47620747        7.07095989
      1.47976533       29.43573813        4.11142923
      4.11142923       26.47620747        9.70262379
      9.86655717       23.68061019        6.90702651
      1.31583195       26.64014085        1.31583195
      1.31583195       23.68061019        4.27536261
      9.86655717       26.64014085        9.86655717
      9.70262379       23.84454357        1.47976533
      7.07095989       32.06740203        7.07095989
      7.07095989       23.84454357        4.11142923
      9.70262379       32.06740203        9.70262379
      9.86655717       29.27180475        1.31583195
      1.31583195       32.23133541        6.90702651
      1.31583195       29.27180475        9.86655717
      9.86655717       32.23133541        4.27536261
      9.70262379       29.43573813        7.07095989
      7.07095989       26.47620747        1.47976533
      7.07095989       29.43573813        9.70262379
      9.70262379       26.47620747        4.11142923
     15.45775173       23.68061019        1.31583195
     18.08941563       26.64014085        6.90702651
     18.08941563       23.68061019        9.86655717
     15.45775173       26.64014085        4.27536261
     15.29381835       23.84454357        7.07095989
     12.66215445       32.06740203        1.47976533
     12.66215445       23.84454357        9.70262379
     15.29381835       32.06740203        4.11142923
     15.45775173       29.27180475        6.90702651
     18.08941563       32.23133541        1.31583195
     18.08941563       29.27180475        4.27536261
     15.45775173       32.23133541        9.86655717
     15.29381835       29.43573813        1.47976533
     12.66215445       26.47620747        7.07095989
     12.66215445       29.43573813        4.11142923
     15.29381835       26.47620747        9.70262379
     21.04894629       23.68061019        6.90702651
     12.49822107       26.64014085        1.31583195
     12.49822107       23.68061019        4.27536261
     21.04894629       26.64014085        9.86655717
     20.88501291       23.84454357        1.47976533
     18.25334901       32.06740203        7.07095989
     18.25334901       23.84454357        4.11142923
     20.88501291       32.06740203        9.70262379
     21.04894629       29.27180475        1.31583195
     12.49822107       32.23133541        6.90702651
     12.49822107       29.27180475        9.86655717
     21.04894629       32.23133541        4.27536261
     20.88501291       29.43573813        7.07095989
     18.25334901       26.47620747        1.47976533
     18.25334901       29.43573813        9.70262379
     20.88501291       26.47620747        4.11142923
     26.64014085       23.68061019        1.31583195
     29.27180475       26.64014085        6.90702651
     29.27180475       23.68061019        9.86655717
     26.64014085       26.64014085        4.27536261
     26.47620747       23.84454357        7.07095989
     23.84454357       32.06740203        1.47976533
     23.84454357       23.84454357        9.70262379
     26.47620747       32.06740203        4.11142923
     26.64014085       29.27180475        6.90702651
     29.27180475       32.23133541        1.31583195
     29.27180475       29.27180475        4.27536261
     26.64014085       32.23133541        9.86655717
     26.47620747       29.43573813        1.47976533
     23.84454357       26.47620747        7.07095989
     23.84454357       29.43573813        4.11142923
     26.47620747       26.47620747        9.70262379
     32.23133541       23.68061019        6.90702651
     23.68061019       26.64014085        1.31583195
     23.68061019       23.68061019        4.27536261
     32.23133541       26.64014085        9.86655717
     32.06740203       23.84454357        1.47976533
     29.43573813       32.06740203        7.07095989
     29.43573813       23.84454357        4.11142923
     32.06740203       32.06740203        9.70262379
     32.23133541       29.27180475        1.31583195
     23.68061019       32.23133541        6.90702651
     23.68061019       29.27180475        9.86655717
     32.23133541       32.23133541        4.27536261
     32.06740203       29.43573813        7.07095989
     29.43573813       26.47620747        1.47976533
     29.43573813       29.43573813        9.70262379
     32.06740203       26.47620747        4.11142923
      4.27536261        1.31583195       12.49822107
      6.90702651        4.27536261       18.08941563
      6.90702651        1.31583195       21.04894629
      4.27536261        4.27536261       15.45775173
      4.11142923        1.47976533       18.25334901
      1.47976533        9.70262379       12.66215445
      1.47976533        1.47976533       20.88501291
      4.11142923        9.70262379       15.29381835
      4.27536261        6.90702651       18.08941563
      6.90702651        9.86655717       12.49822107
      6.90702651        6.90702651       15.45775173
      4.27536261        9.86655717       21.04894629
      4.11142923        7.07095989       12.66215445
      1.47976533        4.11142923       18.25334901
      1.47976533        7.07095989       15.29381835
      4.11142923        4.11142923       20.88501291
      9.86655717        1.31583195       18.08941563
      1.31583195        4.27536261       12.49822107
      1.31583195        1.31583195       15.45775173
      9.86655717        4.27536261       21.04894629
      9.70262379        1.47976533       12.66215445
      7.07095989        9.70262379       18.25334901
      7.07095989        1.47976533       15.29381835
      9.70262379        9.70262379       20.88501291
      9.86655717        6.90702651       12.49822107
      1.31583195        9.86655717       18.08941563
      1.31583195        6.90702651       21.04894629
      9.86655717        9.86655717       15.45775173
      9.70262379        7.07095989       18.25334901
      7.07095989        4.11142923       12.66215445
      7.07095989        7.07095989       20.88501291
      9.70262379        4.11142923       15.29381835
     15.45775173        1.31583195       12.49822107
     18.08941563        4.27536261       18.08941563
     18.08941563        1.31583195       21.04894629
     15.45775173        4.27536261       15.45775173
     15.29381835        1.47976533       18.25334901
     12.66215445        9.70262379       12.66215445
     12.66215445        1.47976533       20.88501291
     15.29381835        9.70262379       15.29381835
     15.45775173        6.90702651       18.08941563
     18.08941563        9.86655717       12.49822107
     18.08941563        6.90702651       15.45775173
     15.45775173        9.86655717       21.04894629
     15.29381835        7.07095989       12.66215445
     12.66215445        4.11142923       18.25334901
     12.66215445        7.07095989       15.29381835
     15.29381835        4.11142923       20.88501291
     21.04894629        1.31583195       18.08941563
     12.49822107        4.27536261       12.49822107
     12.49822107        1.31583195       15.45775173
     21.04894629        4.27536261       21.04894629
     20.88501291        1.47976533       12.66215445
     18.25334901        9.70262379       18.25334901
     18.25334901        1.47976533       15.29381835
     20.88501291        9.70262379       20.88501291
     21.04894629        6.90702651       12.49822107
     12.49822107        9.86655717       18.08941563
     12.49822107        6.90702651       21.04894629
     21.04894629        9.86655717       15.45775173
     20.88501291        7.07095989       18.25334901
     18.25334901        4.11142923       12.66215445
     18.25334901        7.07095989       20.88501291
     20.88501291        4.11142923       15.29381835
     26.64014085        1.31583195       12.49822107
     29.27180475        4.27536261       18.08941563
     29.27180475        1.31583195       21.04894629
     26.64014085        4.27536261       15.45775173
     26.47620747        1.47976533       18.25334901
     23.84454357        9.70262379       12.66215445
     23.84454357        1.47976533       20.88501291
     26.47620747        9.70262379       15.29381835
     26.64014085        6.90702651       18.08941563
     29.27180475        9.86655717       12.49822107
     29.27180475        6.90702651       15.45775173
     26.64014085        9.86655717       21.04894629
     26.47620747        7.07095989       12.66215445
     23.84454357        4.11142923       18.25334901
     23.84454357        7.07095989       15.29381835
     26.47620747        4.11142923       20.88501291
     32.23133541        1.31583195       18.08941563
     23.68061019        4.27536261       12.49822107
     23.68061019        1.31583195       15.45775173
     32.23133541        4.27536261       21.04894629
     32.06740203        1.47976533       12.66215445
     29.43573813        9.70262379       18.25334901
     29.43573813        1.47976533       15.29381835
     32.06740203        9.70262379       20.88501291
     32.23133541        6.90702651       12.49822107
     23.68061019        9.86655717       18.08941563
     23.68061019        6.90702651       21.04894629
     32.23133541        9.86655717       15.45775173
     32.06740203        7.07095989       18.25334901
     29.43573813        4.11142923       12.66215445
     29.43573813        7.07095989       20.88501291
     32.06740203        4.11142923       15.29381835
      4.27536261       12.49822107       12.49822107
      6.90702651       15.45775173       18.08941563
      6.90702651       12.49822107       21.04894629
      4.27536261       15.45775173       15.45775173
      4.11142923       12.66215445       18.25334901
      1.47976533       20.88501291       12.66215445
      1.47976533       12.66215445       20.88501291
      4.11142923       20.88501291       15.29381835
      4.27536261       18.08941563       18.08941563
      6.90702651       21.04894629       12.49822107
      6.90702651       18.08941563       15.45775173
      4.27536261       21.04894629       21.04894629
      4.11142923       18.25334901       12.66215445
      1.47976533       15.29381835       18.25334901
      1.47976533       18.25334901       15.29381835
      4.11142923       15.29381835       20.88501291
      9.86655717       12.49822107       18.08941563
      1.31583195       15.45775173       12.49822107
      1.31583195       12.49822107       15.45775173
      9.86655717       15.45775173       21.04894629
      9.70262379       12.66215445       12.66215445
      7.07095989       20.88501291       18.25334901
      7.07095989       12.66215445       15.29381835
      9.70262379       20.88501291       20.88501291
      9.86655717       18.08941563       12.49822107
      1.31583195       21.04894629       18.08941563
      1.31583195       18.08941563       21.04894629
      9.86655717       21.04894629       15.45775173
      9.70262379       18.25334901       18.25334901
      7.07095989       15.29381835       12.66215445
      7.07095989       18.25334901       20.88501291
      9.70262379       15.29381835       15.29381835
     15.45775173       12.49822107       12.49822107
     18.08941563       15.45775173       18.08941563
     18.08941563       12.49822107       21.04894629
     15.45775173       15.45775173       15.45775173
     15.29381835       12.66215445       18.25334901
     12.66215445       20.88501291       12.66215445
     12.66215445       12.66215445       20.88501291
     15.29381835       20.88501291       15.29381835
     15.45775173       18.08941563       18.08941563
     18.08941563       21.04894629       12.49822107
     18.08941563       18.08941563       15.45775173
     15.45775173       21.04894629       21.04894629
     15.29381835       18.25334901       12.66215445
     12.66215445       15.29381835       18.25334901
     12.66215445       18.25334901       15.29381835
     15.29381835       15.29381835       20.88501291
     21.04894629       12.49822107       18.08941563
     12.49822107       15.45775173       12.49822107
     12.49822107       12.49822107       15.45775173
     21.04894629       15.45775173       21.04894629
     20.88501291       12.66215445       12.66215445
     18.25334901       20.88501291       18.25334901
     18.25334901       12.66215445       15.29381835
     20.88501291       20.88501291       20.88501291
     21.04894629       18.08941563       12.49822107
     12.49822107       21.04894629       18.08941563
     12.49822107       18.08941563       21.04894629
     21.04894629       21.04894629       15.45775173
     20.88501291       18.25334901       18.25334901
     18.25334901       15.29381835       12.66215445
     18.25334901       18.25334901       20.88501291
     20.88501291       15.29381835       15.29381835
     26.64014085       12.49822107       12.49822107
     29.27180475       15.45775173       18.08941563
     29.27180475       12.49822107       21.04894629
     26.64014085       15.45775173       15.45775173
     26.47620747       12.66215445       18.25334901
     23.84454357       20.88501291       12.66215445
     23.84454357       12.66215445       20.88501291
     26.47620747       20.88501291       15.29381835
     26.64014085       18.08941563       18.08941563
     29.27180475       21.04894629       12.49822107
     29.27180475       18.08941563       15.45775173
     26.64014085       21.04894629       21.04894629
     26.47620747       18.25334901       12.66215445
     23.84454357       15.29381835       18.25334901
     23.84454357       18.25334901       15.29381835
     26.47620747       15.29381835       20.88501291
     32.23133541       12.49822107       18.08941563
     23.68061019       15.45775173       12.49822107
     23.68061019       12.49822107       15.45775173
     32.23133541       15.45775173       21.04894629
     32.06740203       12.66215445       12.66215445
     29.43573813       20.88501291       18.25334901
     29.43573813       12.66215445       15.29381835
     32.06740203       20.88501291       20.88501291
     32.23133541       18.08941563       12.49822107
     23.68061019       21.04894629       18.08941563
     23.68061019       18.08941563       21.04894629
     32.23133541       21.04894629       15.45775173
     32.06740203       18.25334901       18.25334901
     29.43573813       15.29381835       12.66215445
     29.43573813       18.25334901       20.88501291
     32.06740203       15.29381835       15.29381835
      4.27536261       23.68061019       12.49822107
      6.90702651       26.64014085       18.08941563
      6.90702651       23.68061019       21.04894629
      4.27536261       26.64014085       15.45775173
      4.11142923       23.84454357       18.25334901
      1.47976533       32.06740203       12.66215445
      1.47976533       23.84454357       20.88501291
      4.11142923       32.06740203       15.29381835
      4.27536261       29.27180475       18.08941563
      6.90702651       32.23133541       12.49822107
      6.90702651       29.27180475       15.45775173
      4.27536261       32.23133541       21.04894629
      4.11142923       29.43573813       12.66215445
      1.47976533       26.47620747       18.25334901
      1.47976533       29.43573813       15.29381835
      4.11142923       26.47620747       20.88501291
      9.86655717       23.68061019       18.08941563
      1.31583195       26.64014085       12.49822107
      1.31583195       23.68061019       15.45775173
      9.86655717       26.64014085       21.04894629
      9.70262379       23.84454357       12.66215445
      7.07095989       32.06740203       18.25334901
      7.07095989       23.84454357       15.29381835
      9.70262379       32.06740203       20.88501291
      9.86655717       29.27180475       12.49822107
      1.31583195       32.23133541       18.08941563
      1.31583195       29.27180475       21.04894629
      9.86655717       32.23133541       15.45775173
      9.70262379       29.43573813       18.25334901
      7.07095989       26.47620747       12.66215445
      7.07095989       29.43573813       20.88501291
      9.70262379       26.47620747       15.29381835
     15.45775173       23.68061019       12.49822107
     18.08941563       26.64014085       18.08941563
     18.08941563       23.68061019       21.04894629
     15.45775173       26.64014085       15.45775173
     15.29381835       23.84454357       18.25334901
     12.66215445       32.06740203       12.66215445
     12.66215445       23.84454357       20.88501291
     15.29381835       32.06740203       15.29381835
     15.45775173       29.27180475       18.08941563
     18.08941563       32.23133541       12.49822107
     18.08941563       29.27180475       15.45775173
     15.45775173       32.23133541       21.04894629
     15.29381835       29.43573813       12.66215445
     12.66215445       26.47620747       18.25334901
     12.66215445       29.43573813       15.29381835
     15.29381835       26.47620747       20.88501291
     21.04894629       23.68061019       18.08941563
     12.49822107       26.64014085       12.49822107
     12.49822107       23.68061019       15.45775173
     21.04894629       26.64014085       21.04894629
     20.88501291       23.84454357       12.66215445
     18.25334901       32.06740203       18.25334901
     18.25334901       23.84454357       15.29381835
     20.88501291       32.06740203       20.88501291
     21.04894629       29.27180475       12.49822107
     12.49822107       32.23133541       18.08941563
     12.49822107       29.27180475       21.04894629
     21.04894629       32.23133541       15.45775173
     20.88501291       29.43573813       18.25334901
     18.25334901       26.47620747       12.66215445
     18.25334901       29.43573813       20.88501291
     20.88501291       26.47620747       15.29381835
     26.64014085       23.68061019       12.49822107
     29.27180475       26.64014085       18.08941563
     29.27180475       23.68061019       21.04894629
     26.64014085       26.64014085       15.45775173
     26.47620747       23.84454357       18.25334901
     23.84454357       32.06740203       12.66215445
     23.84454357       23.84454357       20.88501291
     26.47620747       32.06740203       15.29381835
     26.64014085       29.27180475       18.08941563
     29.27180475       32.23133541       12.49822107
     29.27180475       29.27180475       15.45775173
     26.64014085       32.23133541       21.04894629
     26.47620747       29.43573813       12.66215445
     23.84454357       26.47620747       18.25334901
     23.84454357       29.43573813       15.29381835
     26.47620747       26.47620747       20.88501291
     32.23133541       23.68061019       18.08941563
     23.68061019       26.64014085       12.49822107
     23.68061019       23.68061019       15.45775173
     32.23133541       26.64014085       21.04894629
     32.06740203       23.84454357       12.66215445
     29.43573813       32.06740203       18.25334901
     29.43573813       23.84454357       15.29381835
     32.06740203       32.06740203       20.88501291
     32.23133541       29.27180475       12.49822107
     23.68061019       32.23133541       18.08941563
     23.68061019       29.27180475       21.04894629
     32.23133541       32.23133541       15.45775173
     32.06740203       29.43573813       18.25334901
     29.43573813       26.47620747       12.66215445
     29.43573813       29.43573813       20.88501291
     32.06740203       26.47620747       15.29381835
      4.27536261        1.31583195       23.68061019
      6.90702651        4.27536261       29.27180475
      6.90702651        1.31583195       32.23133541
      4.27536261        4.27536261       26.64014085
      4.11142923        1.47976533       29.43573813
      1.47976533        9.70262379       23.84454357
      1.47976533        1.47976533       32.06740203
      4.11142923        9.70262379       26.47620747
      4.27536261        6.90702651       29.27180475
      6.90702651        9.86655717       23.68061019
      6.90702651        6.90702651       26.64014085
      4.27536261        9.86655717       32.23133541
      4.11142923        7.07095989       23.84454357
      1.47976533        4.11142923       29.43573813
      1.47976533        7.07095989       26.47620747
      4.11142923        4.11142923       32.06740203
      9.86655717        1.31583195       29.27180475
      1.31583195        4.27536261       23.68061019
      1.31583195        1.31583195       26.64014085
      9.86655717        4.27536261       32.23133541
      9.70262379        1.47976533       23.84454357
      7.07095989        9.70262379       29.43573813
      7.07095989        1.47976533       26.47620747
      9.70262379        9.70262379       32.06740203
      9.86655717        6.90702651       23.68061019
      1.31583195        9.86655717       29.27180475
      1.31583195        6.90702651       32.23133541
      9.86655717        9.86655717       26.64014085
      9.70262379        7.07095989       29.43573813
      7.07095989        4.11142923       23.84454357
      7.07095989        7.07095989       32.06740203
      9.70262379        4.11142923       26.47620747
     15.45775173        1.31583195       23.68061019
     18.08941563        4.27536261       29.27180475
     18.08941563        1.31583195       32.23133541
     15.45775173        4.27536261       26.64014085
     15.29381835        1.47976533       29.43573813
     12.66215445        9.70262379       23.84454357
     12.66215445        1.47976533       32.06740203
     15.29381835        9.70262379       26.47620747
     15.45775173        6.90702651       29.27180475
     18.08941563        9.86655717       23.68061019
     18.08941563        6.90702651       26.64014085
     15.45775173        9.86655717       32.23133541
     15.29381835        7.07095989       23.84454357
     12.66215445        4.11142923       29.43573813
     12.66215445        7.07095989       26.47620747
     15.29381835        4.11142923       32.06740203
     21.04894629        1.31583195       29.27180475
     12.49822107        4.27536261       23.68061019
     12.49822107        1.31583195       26.64014085
     21.04894629        4.27536261       32.23133541
     20.88501291        1.47976533       23.84454357
     18.25334901        9.70262379       29.43573813
     18.25334901        1.47976533       26.47620747
     20.88501291        9.70262379       32.06740203
     21.04894629        6.90702651       23.68061019
     12.49822107        9.86655717       29.27180475
     12.49822107        6.90702651       32.23133541
     21.04894629        9.86655717       26.64014085
     20.88501291        7.07095989       29.43573813
     18.25334901        4.11142923       23.84454357
     18.25334901        7.07095989       32.06740203
     20.88501291        4.11142923       26.47620747
     26.64014085        1.31583195       23.68061019
     29.27180475        4.27536261       29.27180475
     29.27180475        1.31583195       32.23133541
     26.64014085        4.27536261       26.64014085
     26.47620747        1.47976533       29.43573813
     23.84454357        9.70262379       23.84454357
     23.84454357        1.47976533       32.06740203
     26.47620747        9.70262379       26.47620747
     26.64014085        6.90702651       29.27180475
     29.27180475        9.86655717       23.68061019
     29.27180475        6.90702651       26.64014085
     26.64014085        9.86655717       32.23133541
     26.47620747        7.07095989       23.84454357
     23.84454357        4.11142923       29.43573813
     23.84454357        7.07095989       26.47620747
     26.47620747        4.11142923       32.06740203
     32.23133541        1.31583195       29.27180475
     23.68061019        4.27536261       23.68061019
     23.68061019        1.31583195       26.64014085
     32.23133541        4.27536261       32.23133541
     32.06740203        1.47976533       23.84454357
     29.43573813        9.70262379       29.43573813
     29.43573813        1.47976533       26.47620747
     32.06740203        9.70262379       32.06740203
     32.23133541        6.90702651       23.68061019
     23.68061019        9.86655717       29.27180475
     23.68061019        6.90702651       32.23133541
     32.23133541        9.86655717       26.64014085
     32.06740203        7.07095989       29.43573813
     29.43573813        4.11142923       23.84454357
     29.43573813        7.07095989       32.06740203
     32.06740203        4.11142923       26.47620747
      4.27536261       12.49822107       23.68061019
      6.90702651       15.45775173       29.27180475
      6.90702651       12.49822107       32.23133541
      4.27536261       15.45775173       26.64014085
      4.11142923       12.66215445       29.43573813
      1.47976533       20.88501291       23.84454357
      1.47976533       12.66215445       32.06740203
      4.11142923       20.88501291       26.47620747
      4.27536261       18.08941563       29.27180475
      6.90702651       21.04894629       23.68061019
      6.90702651       18.08941563       26.64014085
      4.27536261       21.04894629       32.23133541
      4.11142923       18.25334901       23.84454357
      1.47976533       15.29381835       29.43573813
      1.47976533       18.25334901       26.47620747
      4.11142923       15.29381835       32.06740203
      9.86655717       12.49822107       29.27180475
      1.31583195       15.45775173       23.68061019
      1.31583195       12.49822107       26.64014085
      9.86655717       15.45775173       32.23133541
      9.70262379       12.66215445       23.84454357
      7.07095989       20.88501291       29.43573813
      7.07095989       12.66215445       26.47620747
      9.70262379       20.88501291       32.06740203
      9.86655717       18.08941563       23.68061019
      1.31583195       21.04894629       29.27180475
      1.31583195       18.08941563       32.23133541
      9.86655717       21.04894629       26.64014085
      9.70262379       18.25334901       29.43573813
      7.07095989       15.29381835       23.84454357
      7.07095989       18.25334901       32.06740203
      9.70262379       15.29381835       26.47620747
     15.45775173       12.49822107       23.68061019
     18.08941563       15.45775173       29.27180475
     18.08941563       12.49822107       32.23133541
     15.45775173       15.45775173       26.64014085
     15.29381835       12.66215445       29.43573813
     12.66215445       20.88501291       23.84454357
     12.66215445       12.66215445       32.06740203
     15.29381835       20.88501291       26.47620747
     15.45775173       18.08941563       29.27180475
     18.08941563       21.04894629       23.68061019
     18.08941563       18.08941563       26.64014085
     15.45775173       21.04894629       32.23133541
     15.29381835       18.25334901       23.84454357
     12.66215445       15.29381835       29.43573813
     12.66215445       18.25334901       26.47620747
     15.29381835       15.29381835       32.06740203
     21.04894629       12.49822107       29.27180475
     12.49822107       15.45775173       23.68061019
     12.49822107       12.49822107       26.64014085
     21.04894629       15.45775173       32.23133541
     20.88501291       12.66215445       23.84454357
     18.25334901       20.88501291       29.43573813
     18.25334901       12.66215445       26.47620747
     20.88501291       20.88501291       32.06740203
     21.04894629       18.08941563       23.68061019
     12.49822107       21.04894629       29.27180475
     12.49822107       18.08941563       32.23133541
     21.04894629       21.04894629       26.64014085
     20.88501291       18.25334901       29.43573813
     18.25334901       15.29381835       23.84454357
     18.25334901       18.25334901       32.06740203
     20.88501291       15.29381835       26.47620747
     26.64014085       12.49822107       23.68061019
     29.27180475       15.45775173       29.27180475
     29.27180475       12.49822107       32.23133541
     26.64014085       15.45775173       26.64014085
     26.47620747       12.66215445       29.43573813
     23.84454357       20.88501291       23.84454357
     23.84454357       12.66215445       32.06740203
     26.47620747       20.88501291       26.47620747
     26.64014085       18.08941563       29.27180475
     29.27180475       21.04894629       23.68061019
     29.27180475       18.08941563       26.64014085
     26.64014085       21.04894629       32.23133541
     26.47620747       18.25334901       23.84454357
     23.84454357       15.29381835       29.43573813
     23.84454357       18.25334901       26.47620747
     26.47620747       15.29381835       32.06740203
     32.23133541       12.49822107       29.27180475
     23.68061019       15.45775173       23.68061019
     23.68061019       12.49822107       26.64014085
     32.23133541       15.45775173       32.23133541
     32.06740203       12.66215445       23.84454357
     29.43573813       20.88501291       29.43573813
     29.43573813       12.66215445       26.47620747
     32.06740203       20.88501291       32.06740203
     32.23133541       18.08941563       23.68061019
     23.68061019       21.04894629       29.27180475
     23.68061019       18.08941563       32.23133541
     32.23133541       21.04894629       26.64014085
     32.06740203       18.25334901       29.43573813
     29.43573813       15.29381835       23.84454357
     29.43573813       18.25334901       32.06740203
     32.06740203       15.29381835       26.47620747
      4.27536261       23.68061019       23.68061019
      6.90702651       26.64014085       29.27180475
      6.90702651       23.68061019       32.23133541
      4.27536261       26.64014085       26.64014085
      4.11142923       23.84454357       29.43573813
      1.47976533       32.06740203       23.84454357
      1.47976533       23.84454357       32.06740203
      4.11142923       32.06740203       26.47620747
      4.27536261       29.27180475       29.27180475
      6.90702651       32.23133541       23.68061019
      6.90702651       29.27180475       26.64014085
      4.27536261       32.23133541       32.23133541
      4.11142923       29.43573813       23.84454357
      1.47976533       26.47620747       29.43573813
      1.47976533       29.43573813       26.47620747
      4.11142923       26.47620747       32.06740203
      9.86655717       23.68061019       29.27180475
      1.31583195       26.64014085       23.68061019
      1.31583195       23.68061019       26.64014085
      9.86655717       26.64014085       32.23133541
      9.70262379       23.84454357       23.84454357
      7.07095989       32.06740203       29.43573813
      7.07095989       23.84454357       26.47620747
      9.70262379       32.06740203       32.06740203
      9.86655717       29.27180475       23.68061019
      1.31583195       32.23133541       29.27180475
      1.31583195       29.27180475       32.23133541
      9.86655717       32.23133541       26.64014085
      9.70262379       29.43573813       29.43573813
      7.07095989       26.47620747       23.84454357
      7.07095989       29.43573813       32.06740203
      9.70262379       26.47620747       26.47620747
     15.45775173       23.68061019       23.68061019
     18.08941563       26.64014085       29.27180475
     18.08941563       23.68061019       32.23133541
     15.45775173       26.64014085       26.64014085
     15.29381835       23.84454357       29.43573813
     12.66215445       32.06740203       23.84454357
     12.66215445       23.84454357       32.06740203
     15.29381835       32.06740203       26.47620747
     15.45775173       29.27180475       29.27180475
     18.08941563       32.23133541       23.68061019
     18.08941563       29.27180475       26.64014085
     15.45775173       32.23133541       32.23133541
     15.29381835       29.43573813       23.84454357
     12.66215445       26.47620747       29.43573813
     12.66215445       29.43573813       26.47620747
     15.29381835       26.47620747       32.06740203
     21.04894629       23.68061019       29.27180475
     12.49822107       26.64014085       23.68061019
     12.49822107       23.68061019       26.64014085
     21.04894629       26.64014085       32.23133541
     20.88501291       23.84454357       23.84454357
     18.25334901       32.06740203       29.43573813
     18.25334901       23.84454357       26.47620747
     20.88501291       32.06740203       32.06740203
     21.04894629       29.27180475       23.68061019
     12.49822107       32.23133541       29.27180475
     12.49822107       29.27180475       32.23133541
     21.04894629       32.23133541       26.64014085
     20.88501291       29.43573813       29.43573813
     18.25334901       26.47620747       23.84454357
     18.25334901       29.43573813       32.06740203
     20.88501291       26.47620747       26.47620747
     26.64014085       23.68061019       23.68061019
     29.27180475       26.64014085       29.27180475
     29.27180475       23.68061019       32.23133541
     26.64014085       26.64014085       26.64014085
     26.47620747       23.84454357       29.43573813
     23.84454357       32.06740203       23.84454357
     23.84454357       23.84454357       32.06740203
     26.47620747       32.06740203       26.47620747
     26.64014085       29.27180475       29.27180475
     29.27180475       32.23133541       23.68061019
     29.27180475       29.27180475       26.64014085
     26.64014085       32.23133541       32.23133541
     26.47620747       29.43573813       23.84454357
     23.84454357       26.47620747       29.43573813
     23.84454357       29.43573813       26.47620747
     26.47620747       26.47620747       32.06740203
     32.23133541       23.68061019       29.27180475
     23.68061019       26.64014085       23.68061019
     23.68061019       23.68061019       26.64014085
     32.23133541       26.64014085       32.23133541
     32.06740203       23.84454357       23.84454357
     29.43573813       32.06740203       29.43573813
     29.43573813       23.84454357       26.47620747
     32.06740203       32.06740203       32.06740203
     32.23133541       29.27180475       23.68061019
     23.68061019       32.23133541       29.27180475
     23.68061019       29.27180475       32.23133541
     32.23133541       32.23133541       26.64014085
     32.06740203       29.43573813       29.43573813
     29.43573813       26.47620747       23.84454357
     29.43573813       29.43573813       32.06740203
     32.06740203       26.47620747       26.47620747
