# Mg8 Sc16 Se32
1.000000
     22.36477824        0.00000000        0.00000000
      0.00000000       22.36477824        0.00000000
      0.00000000        0.00000000       22.36477824
 Mg  Sc  Se
    64     128     256
Cartesian
      2.79559728        2.79559728        2.79559728
      5.59119456        0.00000000        5.59119456
      2.79559728        8.38679184        8.38679184
      5.59119456        5.59119456        0.00000000
      8.38679184        2.79559728        8.38679184
      0.00000000        0.00000000        0.00000000
      8.38679184        8.38679184        2.79559728
      0.00000000        5.59119456        5.59119456
     13.97798640        2.79559728        2.79559728
     16.77358368        0.00000000        5.59119456
     13.97798640        8.38679184        8.38679184
     16.77358368        5.59119456        0.00000000
     19.56918096        2.79559728        8.38679184
     11.18238912        0.00000000        0.00000000
     19.56918096        8.38679184        2.79559728
     11.18238912        5.59119456        5.59119456
      2.79559728       13.97798640        2.79559728
      5.59119456       11.18238912        5.59119456
      2.79559728       19.56918096        8.38679184
      5.59119456       16.77358368        0.00000000
      8.38679184       13.97798640        8.38679184
      0.00000000       11.18238912        0.00000000
      8.38679184       19.56918096        2.79559728
      0.00000000       16.77358368        5.59119456
     13.97798640       13.97798640        2.79559728
     16.77358368       11.18238912        5.59119456
     13.97798640       19.56918096        8.38679184
     16.77358368       16.77358368        0.00000000
     19.56918096       13.97798640        8.38679184
     11.18238912       11.18238912        0.00000000
     19.56918096       19.56918096        2.79559728
     11.18238912       16.77358368        5.59119456
      2.79559728        2.79559728       13.97798640
      5.59119456        0.00000000       16.77358368
      2.79559728        8.38679184       19.56918096
      5.59119456        5.59119456       11.18238912
      8.38679184        2.79559728       19.56918096
      0.00000000        0.00000000       11.18238912
      8.38679184        8.38679184       13.97798640
      0.00000000        5.59119456       16.77358368
     13.97798640        2.79559728       13.97798640
     16.77358368        0.00000000       16.77358368
     13.97798640        8.38679184       19.56918096
     16.77358368        5.59119456       11.18238912
     19.56918096        2.79559728       19.56918096
     11.18238912        0.00000000       11.18238912
     19.56918096        8.38679184       13.97798640
     11.18238912        5.59119456       16.77358368
      2.79559728       13.97798640       13.97798640
      5.59119456       11.18238912       16.77358368
      2.79559728       19.56918096       19.56918096
      5.59119456       16.77358368       11.18238912
      8.38679184       13.97798640       19.56918096
      0.00000000       11.18238912       11.18238912
      8.38679184       19.56918096       13.97798640
      0.00000000       16.77358368       16.77358368
     13.97798640       13.97798640       13.97798640
     16.77358368       11.18238912       16.77358368
     13.97798640       19.56918096       19.56918096
     16.77358368       16.77358368       11.18238912
     19.56918096       13.97798640       19.56918096
     11.18238912       11.18238912       11.18238912
     19.56918096       19.56918096       13.97798640
     11.18238912       16.77358368       16.77358368
      1.39779864        9.78459048        4.19339592
      4.19339592        1.39779864        9.78459048
      4.19339592        4.19339592        6.98899320
      1.39779864        1.39779864        6.98899320
      1.39779864        4.19339592        9.78459048
      4.19339592        6.98899320        4.19339592
      4.19339592        9.78459048        1.39779864
      1.39779864        6.98899320        1.39779864
      6.98899320        9.78459048        9.78459048
      9.78459048        1.39779864        4.19339592
      9.78459048        4.19339592        1.39779864
      6.98899320        1.39779864        1.39779864
      6.98899320        4.19339592        4.19339592
      9.78459048        6.98899320        9.78459048
      9.78459048        9.78459048        6.98899320
      6.98899320        6.98899320        6.98899320
     12.58018776        9.78459048        4.19339592
     15.37578504        1.39779864        9.78459048
     15.37578504        4.19339592        6.98899320
     12.58018776        1.39779864        6.98899320
     12.58018776        4.19339592        9.78459048
     15.37578504        6.98899320        4.19339592
     15.37578504        9.78459048        1.39779864
     12.58018776        6.98899320        1.39779864
     18.17138232        9.78459048        9.78459048
     20.96697960        1.39779864        4.19339592
     20.96697960        4.19339592        1.39779864
     18.17138232        1.39779864        1.39779864
     18.17138232        4.19339592        4.19339592
     20.96697960        6.98899320        9.78459048
     20.96697960        9.78459048        6.98899320
     18.17138232        6.98899320        6.98899320
      1.39779864       20.96697960        4.19339592
      4.19339592       12.58018776        9.78459048
      4.19339592       15.37578504        6.98899320
      1.39779864       12.58018776        6.98899320
      1.39779864       15.37578504        9.78459048
      4.19339592       18.17138232        4.19339592
      4.19339592       20.96697960        1.39779864
      1.39779864       18.17138232        1.39779864
      6.98899320       20.96697960        9.78459048
      9.78459048       12.58018776        4.19339592
      9.78459048       15.37578504        1.39779864
      6.98899320       12.58018776        1.39779864
      6.98899320       15.37578504        4.19339592
      9.78459048       18.17138232        9.78459048
      9.78459048       20.96697960        6.98899320
      6.98899320       18.17138232        6.98899320
     12.58018776       20.96697960        4.19339592
     15.37578504       12.58018776        9.78459048
     15.37578504       15.37578504        6.98899320
     12.58018776       12.58018776        6.98899320
     12.58018776       15.37578504        9.78459048
     15.37578504       18.17138232        4.19339592
     15.37578504       20.96697960        1.39779864
     12.58018776       18.17138232        1.39779864
     18.17138232       20.96697960        9.78459048
     20.96697960       12.58018776        4.19339592
     20.96697960       15.37578504        1.39779864
     18.17138232       12.58018776        1.39779864
     18.17138232       15.37578504        4.19339592
     20.96697960       18.17138232        9.78459048
     20.96697960       20.96697960        6.98899320
     18.17138232       18.17138232        6.98899320
      1.39779864        9.78459048       15.37578504
      4.19339592        1.39779864       20.96697960
      4.19339592        4.19339592       18.17138232
      1.39779864        1.39779864       18.17138232
      1.39779864        4.19339592       20.96697960
      4.19339592        6.98899320       15.37578504
      4.19339592        9.78459048       12.58018776
      1.39779864        6.98899320       12.58018776
      6.98899320        9.78459048       20.96697960
      9.78459048        1.39779864       15.37578504
      9.78459048        4.19339592       12.58018776
      6.98899320        1.39779864       12.58018776
      6.98899320        4.19339592       15.37578504
      9.78459048        6.98899320       20.96697960
      9.78459048        9.78459048       18.17138232
      6.98899320        6.98899320       18.17138232
     12.58018776        9.78459048       15.37578504
     15.37578504        1.39779864       20.96697960
     15.37578504        4.19339592       18.17138232
     12.58018776        1.39779864       18.17138232
     12.58018776        4.19339592       20.96697960
     15.37578504        6.98899320       15.37578504
     15.37578504        9.78459048       12.58018776
     12.58018776        6.98899320       12.58018776
     18.17138232        9.78459048       20.96697960
     20.96697960        1.39779864       15.37578504
     20.96697960        4.19339592       12.58018776
     18.17138232        1.39779864       12.58018776
     18.17138232        4.19339592       15.37578504
     20.96697960        6.98899320       20.96697960
     20.96697960        9.78459048       18.17138232
     18.17138232        6.98899320       18.17138232
      1.39779864       20.96697960       15.37578504
      4.19339592       12.58018776       20.96697960
      4.19339592       15.37578504       18.17138232
      1.39779864       12.58018776       18.17138232
      1.39779864       15.37578504       20.96697960
      4.19339592       18.17138232       15.37578504
      4.19339592       20.96697960       12.58018776
      1.39779864       18.17138232       12.58018776
      6.98899320       20.96697960       20.96697960
      9.78459048       12.58018776       15.37578504
      9.78459048       15.37578504       12.58018776
      6.98899320       12.58018776       12.58018776
      6.98899320       15.37578504       15.37578504
      9.78459048       18.17138232       20.96697960
      9.78459048       20.96697960       18.17138232
      6.98899320       18.17138232       18.17138232
     12.58018776       20.96697960       15.37578504
     15.37578504       12.58018776       20.96697960
     15.37578504       15.37578504       18.17138232
     12.58018776       12.58018776       18.17138232
     12.58018776       15.37578504       20.96697960
     15.37578504       18.17138232       15.37578504
     15.37578504       20.96697960       12.58018776
     12.58018776       18.17138232       12.58018776
     18.17138232       20.96697960       20.96697960
     20.96697960       12.58018776       15.37578504
     20.96697960       15.37578504       12.58018776
     18.17138232       12.58018776       12.58018776
     18.17138232       15.37578504       15.37578504
     20.96697960       18.17138232       20.96697960
     20.96697960       20.96697960       18.17138232
     18.17138232       18.17138232       18.17138232
      4.27536261        1.31583195        1.31583195
      6.90702651        4.27536261        6.90702651
      6.90702651        1.31583195        9.86655717
      4.27536261        4.27536261        4.27536261
      4.11142923        1.47976533        7.07095989
      1.47976533        9.70262379        1.47976533
      1.47976533        1.47976533        9.70262379
      4.11142923        9.70262379        4.11142923
      4.27536261        6.90702651        6.90702651
      6.90702651        9.86655717        1.31583195
      6.90702651        6.90702651        4.27536261
      4.27536261        9.86655717        9.86655717
      4.11142923        7.07095989        1.47976533
      1.47976533        4.11142923        7.07095989
      1.47976533        7.07095989        4.11142923
      4.11142923        4.11142923        9.70262379
      9.86655717        1.31583195        6.90702651
      1.31583195        4.27536261        1.31583195
      1.31583195        1.31583195        4.27536261
      9.86655717        4.27536261        9.86655717
      9.70262379        1.47976533        1.47976533
      7.07095989        9.70262379        7.07095989
      7.07095989        1.47976533        4.11142923
      9.70262379        9.70262379        9.70262379
      9.86655717        6.90702651        1.31583195
      1.31583195        9.86655717        6.90702651
      1.31583195        6.90702651        9.86655717
      9.86655717        9.86655717        4.27536261
      9.70262379        7.07095989        7.07095989
      7.07095989        4.11142923        1.47976533
      7.07095989        7.07095989        9.70262379
      9.70262379        4.11142923        4.11142923
     15.45775173        1.31583195        1.31583195
     18.08941563        4.27536261        6.90702651
     18.08941563        1.31583195        9.86655717
     15.45775173        4.27536261        4.27536261
     15.29381835        1.47976533        7.07095989
     12.66215445        9.70262379        1.47976533
     12.66215445        1.47976533        9.70262379
     15.29381835        9.70262379        4.11142923
     15.45775173        6.90702651        6.90702651
     18.08941563        9.86655717        1.31583195
     18.08941563        6.90702651        4.27536261
     15.45775173        9.86655717        9.86655717
     15.29381835        7.07095989        1.47976533
     12.66215445        4.11142923        7.07095989
     12.66215445        7.07095989        4.11142923
     15.29381835        4.11142923        9.70262379
     21.04894629        1.31583195        6.90702651
     12.49822107        4.27536261        1.31583195
     12.49822107        1.31583195        4.27536261
     21.04894629        4.27536261        9.86655717
     20.88501291        1.47976533        1.47976533
     18.25334901        9.70262379        7.07095989
     18.25334901        1.47976533        4.11142923
     20.88501291        9.70262379        9.70262379
     21.04894629        6.90702651        1.31583195
     12.49822107        9.86655717        6.90702651
     12.49822107        6.90702651        9.86655717
     21.04894629        9.86655717        4.27536261
     20.88501291        7.07095989        7.07095989
     18.25334901        4.11142923        1.47976533
     18.25334901        7.07095989        9.70262379
     20.88501291        4.11142923        4.11142923
      4.27536261       12.49822107        1.31583195
      6.90702651       15.45775173        6.90702651
      6.90702651       12.49822107        9.86655717
      4.27536261       15.45775173        4.27536261
      4.11142923       12.66215445        7.07095989
      1.47976533       20.88501291        1.47976533
      1.47976533       12.66215445        9.70262379
      4.11142923       20.88501291        4.11142923
      4.27536261       18.08941563        6.90702651
      6.90702651       21.04894629        1.31583195
      6.90702651       18.08941563        4.27536261
      4.27536261       21.04894629        9.86655717
      4.11142923       18.25334901        1.47976533
      1.47976533       15.29381835        7.07095989
      1.47976533       18.25334901        4.11142923
      4.11142923       15.29381835        9.70262379
      9.86655717       12.49822107        6.90702651
      1.31583195       15.45775173        1.31583195
      1.31583195       12.49822107        4.27536261
      9.86655717       15.45775173        9.86655717
      9.70262379       12.66215445        1.47976533
      7.07095989       20.88501291        7.07095989
      7.07095989       12.66215445        4.11142923
      9.70262379       20.88501291        9.70262379
      9.86655717       18.08941563        1.31583195
      1.31583195       21.04894629        6.90702651
      1.31583195       18.08941563        9.86655717
      9.86655717       21.04894629        4.27536261
      9.70262379       18.25334901        7.07095989
      7.07095989       15.29381835        1.47976533
      7.07095989       18.25334901        9.70262379
      9.70262379       15.29381835        4.11142923
     15.45775173       12.49822107        1.31583195
     18.08941563       15.45775173        6.90702651
     18.08941563       12.49822107        9.86655717
     15.45775173       15.45775173        4.27536261
     15.29381835       12.66215445        7.07095989
     12.66215445       20.88501291        1.47976533
     12.66215445       12.66215445        9.70262379
     15.29381835       20.88501291        4.11142923
     15.45775173       18.08941563        6.90702651
     18.08941563       21.04894629        1.31583195
     18.08941563       18.08941563        4.27536261
     15.45775173       21.04894629        9.86655717
     15.29381835       18.25334901        1.47976533
     12.66215445       15.29381835        7.07095989
     12.66215445       18.25334901        4.11142923
     15.29381835       15.29381835        9.70262379
     21.04894629       12.49822107        6.90702651
     12.49822107       15.45775173        1.31583195
     12.49822107       12.49822107        4.27536261
     21.04894629       15.45775173        9.86655717
     20.88501291       12.66215445        1.47976533
     18.25334901       20.88501291        7.07095989
     18.25334901       12.66215445        4.11142923
     20.88501291       20.88501291        9.70262379
     21.04894629       18.08941563        1.31583195
     12.49822107       21.04894629        6.90702651
     12.49822107       18.08941563        9.86655717
     21.04894629       21.04894629        4.27536261
     20.88501291       18.25334901        7.07095989
     18.25334901       15.29381835        1.47976533
     18.25334901       18.25334901        9.70262379
     20.88501291       15.29381835        4.11142923
      4.27536261        1.31583195       12.49822107
      6.90702651        4.27536261       18.08941563
      6.90702651        1.31583195       21.04894629
      4.27536261        4.27536261       15.45775173
      4.11142923        1.47976533       18.25334901
      1.47976533        9.70262379       12.66215445
      1.47976533        1.47976533       20.88501291
      4.11142923        9.70262379       15.29381835
      4.27536261        6.90702651       18.08941563
      6.90702651        9.86655717       12.49822107
      6.90702651        6.90702651       15.45775173
      4.27536261        9.86655717       21.04894629
      4.11142923        7.07095989       12.66215445
      1.47976533        4.11142923       18.25334901
      1.47976533        7.07095989       15.29381835
      4.11142923        4.11142923       20.88501291
      9.86655717        1.31583195       18.08941563
      1.31583195        4.27536261       12.49822107
      1.31583195        1.31583195       15.45775173
      9.86655717        4.27536261       21.04894629
      9.70262379        1.47976533       12.66215445
      7.07095989        9.70262379       18.25334901
      7.07095989        1.47976533       15.29381835
      9.70262379        9.70262379       20.88501291
      9.86655717        6.90702651       12.49822107
      1.31583195        9.86655717       18.08941563
      1.31583195        6.90702651       21.04894629
      9.86655717        9.86655717       15.45775173
      9.70262379        7.07095989       18.25334901
      7.07095989        4.11142923       12.66215445
      7.07095989        7.07095989       20.88501291
      9.70262379        4.11142923       15.29381835
     15.45775173        1.31583195       12.49822107
     18.08941563        4.27536261       18.08941563
     18.08941563        1.31583195       21.04894629
     15.45775173        4.27536261       15.45775173
     15.29381835        1.47976533       18.25334901
     12.66215445        9.70262379       12.66215445
     12.66215445        1.47976533       20.88501291
     15.29381835        9.70262379       15.29381835
     15.45775173        6.90702651       18.08941563
     18.08941563        9.86655717       12.49822107
     18.08941563        6.90702651       15.45775173
     15.45775173        9.86655717       21.04894629
     15.29381835        7.07095989       12.66215445
     12.66215445        4.11142923       18.25334901
     12.66215445        7.07095989       15.29381835
     15.29381835        4.11142923       20.88501291
     21.04894629        1.31583195       18.08941563
     12.49822107        4.27536261       12.49822107
     12.49822107        1.31583195       15.45775173
     21.04894629        4.27536261       21.04894629
     20.88501291        1.47976533       12.66215445
     18.25334901        9.70262379       18.25334901
     18.25334901        1.47976533       15.29381835
     20.88501291        9.70262379       20.88501291
     21.04894629        6.90702651       12.49822107
     12.49822107        9.86655717       18.08941563
     12.49822107        6.90702651       21.04894629
     21.04894629        9.86655717       15.45775173
     20.88501291        7.07095989       18.25334901
     18.25334901        4.11142923       12.66215445
     18.25334901        7.07095989       20.88501291
     20.88501291        4.11142923       15.29381835
      4.27536261       12.49822107       12.49822107
      6.90702651       15.45775173       18.08941563
      6.90702651       12.49822107       21.04894629
      4.27536261       15.45775173       15.45775173
      4.11142923       12.66215445       18.25334901
      1.47976533       20.88501291       12.66215445
      1.47976533       12.66215445       20.88501291
      4.11142923       20.88501291       15.29381835
      4.27536261       18.08941563       18.08941563
      6.90702651       21.04894629       12.49822107
      6.90702651       18.08941563       15.45775173
      4.27536261       21.04894629       21.04894629
      4.11142923       18.25334901       12.66215445
      1.47976533       15.29381835       18.25334901
      1.47976533       18.25334901       15.29381835
      4.11142923       15.29381835       20.88501291
      9.86655717       12.49822107       18.08941563
      1.31583195       15.45775173       12.49822107
      1.31583195       12.49822107       15.45775173
      9.86655717       15.45775173       21.04894629
      9.70262379       12.66215445       12.66215445
      7.07095989       20.88501291       18.25334901
      7.07095989       12.66215445       15.29381835
      9.70262379       20.88501291       20.88501291
      9.86655717       18.08941563       12.49822107
      1.31583195       21.04894629       18.08941563
      1.31583195       18.08941563       21.04894629
      9.86655717       21.04894629       15.45775173
      9.70262379       18.25334901       18.25334901
      7.07095989       15.29381835       12.66215445
      7.07095989       18.25334901       20.88501291
      9.70262379       15.29381835       15.29381835
     15.45775173       12.49822107       12.49822107
     18.08941563       15.45775173       18.08941563
     18.08941563       12.49822107       21.04894629
     15.45775173       15.45775173       15.45775173
     15.29381835       12.66215445       18.25334901
     12.66215445       20.88501291       12.66215445
     12.66215445       12.66215445       20.88501291
     15.29381835       20.88501291       15.29381835
     15.45775173       18.08941563       18.08941563
     18.08941563       21.04894629       12.49822107
     18.08941563       18.08941563       15.45775173
     15.45775173       21.04894629       21.04894629
     15.29381835       18.25334901       12.66215445
     12.66215445       15.29381835       18.25334901
     12.66215445       18.25334901       15.29381835
     15.29381835       15.29381835       20.88501291
     21.04894629       12.49822107       18.08941563
     12.49822107       15.45775173       12.49822107
     12.49822107       12.49822107       15.45775173
     21.04894629       15.45775173       21.04894629
     20.88501291       12.66215445       12.66215445
     18.25334901       20.88501291       18.25334901
     18.25334901       12.66215445       15.29381835
     20.88501291       20.88501291       20.88501291
     21.04894629       18.08941563       12.49822107
     12.49822107       21.04894629       18.08941563
     12.49822107       18.08941563       21.04894629
     21.04894629       21.04894629       15.45775173
     20.88501291       18.25334901       18.25334901
     18.25334901       15.29381835       12.66215445
     18.25334901       18.25334901       20.88501291
     20.88501291       15.29381835       15.29381835
