Mg Sc Se
 1.0000000000000000
     7.8491573619263537    0.0000000000000000    0.0000000000000005
    -0.0000000000000016   26.0327098899655347    0.0000000000000016
     0.0000000000000000    0.0000000000000000   50.2033791705183532
 Mg  Sc  Se 
  38  72 144
Selective dynamics
Cartesian
  0.0 18.7404691923024622 39.8   T   T   T
  0.0 23.46573 40.9674937027710413   T   T   T
 -0.0000000000000005 21.2482607880501355 17.4625093311662987   T   T   T
  7.8491573619263519  9.4152108380657999 10.7687254417638520   T   T   T
  7.8491573619263511  2.3153808680752039 14.1156173864650718   T   T   T
  3.9245786809631746 22.4315657830485691 19.9726782896922153   T   T   T
  3.9245786809631755 10.5985158330642335 13.2788944002897633   T   T   T
  3.9245786809631746  3.4986858630736331 16.6257863449909884   T   T   T
  3.9245786809631737 15.3317358130579677 14.1156173864650771   T   T   T
  3.9245786809631764  8.2319058430673682 17.4625093311663022   T   T   T
  3.9245786809631764 22.4315657830485726 10.7687254417638467   T   T   T
  7.8491573619263519 16.5150408080564048 16.6257863449909884   T   T   T
  0.0000000000000005  4.6819908580720675  9.9320024555885436   T   T   T
  7.8491573619263493 23.6148707780470026 13.2788944002897651   T   T   T
  0.0000000000000016 -0.0512291219216655 27.5031851652699721   T   T   T
  7.8491573619263519 14.1484308180595324 20.8094012758675220   T   T   T
  7.8491573619263519  7.0486008480689364 24.1562932205687488   T   T   T
  3.9245786809631769  1.1320758730767639 30.0133541237958852   T   T   T
  3.9245786809631760 15.3317358130579677 23.3195702343934350   T   T   T
  3.9245786809631746  8.2319058430673646 26.6664621790946690   T   T   T
  3.9245786809631733 20.0649557930517020 24.1562932205687453   T   T   T
  3.9245786809631769 12.9651258230611024 27.5031851652699650   T   T   T
  3.9245786809631777  1.1320758730767715 20.8094012758675220   T   T   T
  7.8491573619263528 21.2482607880501391 26.6664621790946690   T   T   T
  0.0000000000000002  9.4152108380658035 19.9726782896922153   T   T   T
  7.8491573619263519  2.3153808680752008 23.3195702343934457   T   T   T
  0.0000000000000021  4.6819908580720675 37.5438609993736421   T   T   T
  7.8491573619263528 18.8816507980532720 30.8500771099711955   T   T   T
  7.8491573619263511 11.7818208280626759 34.1969690546724152   T   T   T
  3.9245786809631773  5.8652958530705019 40.0540299578995587   T   T   T
  3.9245786809631764 20.0649557930517020 33.3602460684971120   T   T   T
  3.9245786809631742 12.9651258230611024 36.7071380131983389   T   T   T
  3.9245786809631751 -1.2345341169201001 34.1969690546724152   T   T   T
  3.9245786809631769 17.6983458030548348 37.5438609993736492   T   T   T
  3.9245786809631782  5.8652958530705046 30.8500771099711955   T   T   T
  7.8491573619263537 -0.0512291219216655 36.7071380131983318   T   T   T
  0.0000000000000007 14.1484308180595360 30.0133541237958852   T   T   T
  7.8491573619263519  7.0486008480689346 33.3602460684971120   T   T   T
  6.01053  15.0  40.0 T T T
  5.8868680214447666  6.4569483505697187 13.6972558933774202   T   T   T
  5.8868680214447640 -0.6428816194208842 17.0441478380786471   T   T   T
  5.8868680214447648 19.4733032955524870 13.6972558933774202   T   T   T
  5.8868680214447648 12.3734733255618892 17.0441478380786400   T   T   T
  7.84916 8.0  40.0  T T T
  7.8491573619263502 16.5150408080564013 12.0238099210268103   T   T   T
  7.8491573619263519  9.4152108380657982 15.3707018657280319   T   T   T
  7.8491573619263511  2.3153808680752008 18.7175938104292570   T   T   T
  7.8491573619263511 20.0649557930517020 10.3503639486761969   T   T   T
  7.8491573619263519 12.9651258230611024 13.6972558933774149   T   T   T
  7.8491573619263475  5.8652958530704975 17.0441478380786471   T   T   T
  1.9622893404815882 19.4733032955524870 13.6972558933774202   T   T   T
  1.9622893404815853 12.3734733255618803 17.0441478380786400   T   T   T
  3.92458  20.9  40.0 T T T
  1.9622893404815867 13.5567783205603192 10.3503639486762005   T   T   T
  1.9622893404815889  6.4569483505697187 13.6972558933774202   T   T   T
  1.9622893404815860 -0.6428816194208815 17.0441478380786400   T   T   T
  3.9245786809631751 15.3317358130579677 18.7175938104292570   T   T   T
  3.9245786809631746  3.4986858630736384 12.0238099210268103   T   T   T
  3.9245786809631733 22.4315657830485726 15.3707018657280319   T   T   T
  3.9245786809631746 18.8816507980532720 17.0441478380786471   T   T   T
  3.9245786809631746  7.0486008480689319 10.3503639486762005   T   T   T
  3.9245786809631746 -0.0512291219216629 13.6972558933774202   T   T   T
  5.8868680214447631 18.2899983005540498 20.3910397827798704   T   T   T
  5.8868680214447657 11.1901683305634503 23.7379317274810973   T   T   T
  5.8868680214447648  4.0903383605728489 27.0848236721823135   T   T   T
  5.8868680214447640 24.2065232755462212 23.7379317274810973   T   T   T
  5.8868680214447648 17.1066933055556198 27.0848236721823135   T   T   T
  5.8868680214447640  5.2736433555712861 20.3910397827798704   T   T   T
  7.8491573619263502 21.2482607880501320 22.0644857551304803   T   T   T
  7.8491573619263528 14.1484308180595324 25.4113776998317036   T   T   T
  7.8491573619263519  7.0486008480689364 28.7582696445329269   T   T   T
  7.8491573619263493 24.7981757730454362 20.3910397827798739   T   T   T
  7.8491573619263528 17.6983458030548348 23.7379317274810937   T   T   T
  7.8491573619263475 10.5985158330642353 27.0848236721823135   T   T   T
  1.9622893404815887 24.2065232755462212 23.7379317274810973   T   T   T
  1.9622893404815858 17.1066933055556198 27.0848236721823135   T   T   T
  1.9622893404815827  5.2736433555712807 20.3910397827798704   T   T   T
  1.9622893404815864 18.2899983005540498 20.3910397827798704   T   T   T
  1.9622893404815895 11.1901683305634503 23.7379317274810973   T   T   T
  1.9622893404815867  4.0903383605728489 27.0848236721823135   T   T   T
  3.9245786809631755 20.0649557930517020 28.7582696445329269   T   T   T
  3.9245786809631742  8.2319058430673682 22.0644857551304803   T   T   T
  3.9245786809631746  1.1320758730767664 25.4113776998317036   T   T   T
  3.9245786809631755 23.6148707780470026 27.0848236721823206   T   T   T
  3.9245786809631751 11.7818208280626671 20.3910397827798775   T   T   T
  3.9245786809631742  4.6819908580720702 23.7379317274810901   T   T   T
  5.8868680214447631 23.0232182805477876 30.4317156168835439   T   T   T
  5.8868680214447657 15.9233883105571898 33.7786075615847636   T   T   T
  5.8868680214447640  8.8235583405665814 37.1254995062859905   T   T   T
  5.8868680214447657  2.9070333655744247 33.7786075615847636   T   T   T
  5.8868680214447640 21.8399132855493541 37.1254995062859905   T   T   T
  5.8868680214447640 10.0068633355650203 30.4317156168835368   T   T   T
  7.8491573619263519 -0.0512291219216707 32.1051615892341502   T   T   T
  7.8491573619263546 18.8816507980532720 35.4520535339353700   T   T   T
  7.8491573619263519 11.7818208280626671 38.7989454786365968   T   T   T
  7.8491573619263519  3.4986858630736353 30.4317156168835439   T   T   T
  7.8491573619263519 22.4315657830485726 33.7786075615847636   T   T   T
  7.8491573619263475 15.3317358130579677 37.1254995062859905   T   T   T
  1.9622893404815900  2.9070333655744247 33.7786075615847636   T   T   T
  1.9622893404815862 21.8399132855493505 37.1254995062859905   T   T   T
  1.9622893404815829 10.0068633355650203 30.4317156168835439   T   T   T
  1.9622893404815871 23.0232182805477912 30.4317156168835439   T   T   T
  1.9622893404815893 15.9233883105571898 33.7786075615847636   T   T   T
  1.9622893404815864  8.8235583405665814 37.1254995062859905   T   T   T
  3.9245786809631777 -1.2345341169201001 38.7989454786365968   T   T   T
  3.9245786809631742 12.9651258230611042 32.1051615892341502   T   T   T
  3.9245786809631746  5.8652958530704975 35.4520535339353842   T   T   T
  3.9245786809631769  2.3153808680752039 37.1254995062859905   T   T   T
  3.9245786809631760 16.5150408080564048 30.4317156168835439   T   T   T
  3.9245786809631746  9.4152108380658035 33.7786075615847565   T   T   T
  5.7632049867115729 20.6193224826739510 16.1283297091278648   T   T   T
  5.7632049867115729 13.5194925126833443 19.4752216538290881   T   T   T
  5.7632049867115711  1.6864425626990129 12.7814377644266433   T   T   T
  6.0105310561779515 14.7027975076817778 12.7814377644266379   T   T   T
  6.0105310561779550  7.6029675376911774 16.1283297091278648   T   T   T
  6.0105310561779506  0.5031375677005757 19.4752216538290952   T   T   T
  3.9245786809631711 17.8474890345627166 14.5603439271445492   T   T   T
  3.9245786809631755 10.7476590645721188 17.9072358718457814   T   T   T
  3.9245786809631724 24.9473190045533144 11.2134519824433312   T   T   T
  7.8491573619263528 19.9903841772977628 19.6861420345636873   T   T   T
  7.8491573619263511  8.1573342273134273 12.9923581451612424   T   T   T
  7.8491573619263475  1.0575042573228273 16.3392500898624640   T   T   T
  6.0105310561779532 18.3272841084310265 11.2661820776269792   T   T   T
  6.0105310561779541 11.2274541384404216 14.6130740223282025   T   T   T
  6.0105310561779506  4.1276241684498212 17.9599659670294329   T   T   T
  5.7632049867115720 17.1439791134325894 17.9599659670294223   T   T   T
  5.7632049867115738  5.3109291634482529 11.2661820776269774   T   T   T
  5.7632049867115729 24.2438090834231907 14.6130740223282043   T   T   T
  7.8491573619263528 21.0991175565422537 12.8341678596102930   T   T   T
  7.8491573619263519 13.9992875865516506 16.1810598043115128   T   T   T
  7.8491573619263475  6.8994576165610537 19.5279517490127432   T   T   T
  3.9245786809631729 11.8563924438166097 11.0552616968923800   T   T   T
  3.9245786809631773  4.7565624738260066 14.4021536415936016   T   T   T
  3.9245786809631764 23.6894423938009488 17.7490455862948231   T   T   T
  1.8386263057483947 14.7027975076817832 12.7814377644266379   T   T   T
  1.8386263057483976  7.6029675376911756 16.1283297091278648   T   T   T
  1.8386263057483947  0.5031375677005783 19.4752216538290881   T   T   T
  2.0859523752147764 13.5194925126833443 19.4752216538290881   T   T   T
  2.0859523752147773  1.6864425626990129 12.7814377644266433   T   T   T
  2.0859523752147719 20.6193224826739439 16.1283297091278683   T   T   T
  7.8491573619263511 11.9309640595705471 11.2134519824433312   T   T   T
  0.0000000000000005  4.8311340895799511 14.5603439271445545   T   T   T
  7.8491573619263475 23.7640140095548844 17.9072358718457743   T   T   T
  3.9245786809631737 14.0738592023055915 16.3392500898624640   T   T   T
  3.9245786809631742  6.9740292323149902 19.6861420345636908   T   T   T
  3.9245786809631733 21.1736891722961929 12.9923581451612460   T   T   T
  2.0859523752147764 17.1439791134325930 17.9599659670294294   T   T   T
  2.0859523752147786  5.3109291634482556 11.2661820776269774   T   T   T
  2.0859523752147759 24.2438090834231907 14.6130740223282025   T   T   T
  1.8386263057483927 18.3272841084310194 11.2661820776269792   T   T   T
  1.8386263057483974 11.2274541384404216 14.6130740223282025   T   T   T
  1.8386263057483945  4.1276241684498212 17.9599659670294329   T   T   T
  3.9245786809631746 19.9158125615438166 19.5279517490127397   T   T   T
  3.9245786809631755  8.0827626115594864 12.8341678596102913   T   T   T
  3.9245786809631746  0.9829326415688829 16.1810598043115128   T   T   T
  7.8491573619263502 17.7729174188087775 14.4021536415936016   T   T   T
  7.8491573619263519 10.6730874488181779 17.7490455862948231   T   T   T
  7.8491573619263493 24.8727473887993753 11.0552616968923765   T   T   T
  5.7632049867115738 -0.6801674272978536 26.1690055432315383   T   T   T
  5.7632049867115738 18.2527124926770803 29.5158974879327651   T   T   T
  5.7632049867115720  6.4196625426927456 22.8221135985303185   T   T   T
  6.0105310561779524 19.4360174876755138 22.8221135985303185   T   T   T
  6.0105310561779559 12.3361875176849143 26.1690055432315347   T   T   T
  6.0105310561779515  5.2363575476943112 29.5158974879327580   T   T   T
  3.9245786809631715 22.5807090145564509 24.6010197612482280   T   T   T
  3.9245786809631760 15.4808790445658513 27.9479117059494477   T   T   T
  3.9245786809631742  3.6478290945815135 21.2541278165470011   T   T   T
  7.8491573619263537 -1.3091057326740392 29.7268178686673608   T   T   T
  7.8491573619263511 12.8905542073071597 23.0330339792649106   T   T   T
  7.8491573619263493  5.7907242373165602 26.3799259239661339   T   T   T
  6.0105310561779524 23.0605040884247572 21.3068579117306562   T   T   T
  6.0105310561779550 15.9606741184341541 24.6537498564318760   T   T   T
  6.0105310561779506  8.8608441484435545 28.0006418011330993   T   T   T
  5.7632049867115720 21.8771990934263272 28.0006418011330958   T   T   T
  5.7632049867115729 10.0441491434419898 21.3068579117306491   T   T   T
  5.7632049867115756  2.9443191734513889 24.6537498564318724   T   T   T
  7.8491573619263537 -0.2003723534295464 22.8748436937139559   T   T   T
  7.8491573619263528 18.7325075665453866 26.2217356384151827   T   T   T
  7.8491573619263475 11.6326775965547835 29.5686275831164096   T   T   T
  3.9245786809631742 16.5896124238103404 21.0959375309960571   T   T   T
  3.9245786809631782  9.4897824538197444 24.4428294756972697   T   T   T
  3.9245786809631786  2.3899524838291404 27.7897214203984895   T   T   T
  1.8386263057483951 19.4360174876755174 22.8221135985303150   T   T   T
  1.8386263057483980 12.3361875176849090 26.1690055432315347   T   T   T
  1.8386263057483954  5.2363575476943112 29.5158974879327580   T   T   T
  2.0859523752147768 18.2527124926770803 29.5158974879327651   T   T   T
  2.0859523752147768  6.4196625426927518 22.8221135985303185   T   T   T
  2.0859523752147742 -0.6801674272978536 26.1690055432315383   T   T   T
  7.8491573619263511 16.6641840395642831 21.2541278165469940   T   T   T
  0.0000000000000010  9.5643540695736888 24.6010197612482209   T   T   T
  7.8491573619263502  2.4645240995830795 27.9479117059494477   T   T   T
  3.9245786809631733 18.8070791822993257 26.3799259239661339   T   T   T
  3.9245786809631742 11.7072492123087279 29.7268178686673679   T   T   T
  3.9245786809631746 -0.1258007376756099 23.0330339792649106   T   T   T
  2.0859523752147768 21.8771990934263272 28.0006418011330958   T   T   T
  2.0859523752147795 10.0441491434419916 21.3068579117306491   T   T   T
  2.0859523752147773  2.9443191734513889 24.6537498564318724   T   T   T
  1.8386263057483934 23.0605040884247536 21.3068579117306491   T   T   T
  1.8386263057483978 15.9606741184341541 24.6537498564318724   T   T   T
  1.8386263057483943  8.8608441484435545 28.0006418011330993   T   T   T
  3.9245786809631769 -1.3836773484279834 29.5686275831164203   T   T   T
  3.9245786809631760 12.8159825915532188 22.8748436937139630   T   T   T
  3.9245786809631742  5.7161526215626211 26.2217356384151898   T   T   T
  7.8491573619263502 22.5061373988025117 24.4428294756972697   T   T   T
  7.8491573619263528 15.4063074288119086 27.7897214203984966   T   T   T
  7.8491573619263511  3.5732574788275775 21.0959375309960500   T   T   T
  5.7632049867115738  4.0530525526958794 36.2096813773352011   T   T   T
  5.7632049867115738 22.9859324726708145 39.5565733220364351   T   T   T
  5.7632049867115711 11.1528825226864789 32.8627894326339813   T   T   T
  6.0105310561779515 24.1692374676692481 32.8627894326339813   T   T   T
  6.0105310561779559 17.0694074976786467 36.2096813773352082   T   T   T
  6.0105310561779515  9.9695775276880418 39.5565733220364280   T   T   T
  3.9245786809631737  1.2812191045846524 34.6416955953519121   T   T   T
  3.9245786809631764 20.2140990245595873 37.9885875400531248   T   T   T
  3.9245786809631746  8.3810490745752464 31.2948036506506710   T   T   T
  7.8491573619263537  3.4241142473196939 39.7674937027710342   T   T   T
  7.8491573619263519 17.6237741873008922 33.0737098133685876   T   T   T
  7.8491573619263475 10.5239442173102908 36.4206017580698145   T   T   T
  6.0105310561779550  1.7610141784529545 31.3475337458343262   T   T   T
  6.0105310561779550 20.6938940984278901 34.6944256905355388   T   T   T
  6.0105310561779506 13.5940641284372923 38.0413176352367728   T   T   T
  5.7632049867115747  0.5777091834545226 38.0413176352367657   T   T   T
  5.7632049867115738 14.7773691234357205 31.3475337458343155   T   T   T
  5.7632049867115747  7.6775391534451227 34.6944256905355459   T   T   T
  7.8491573619263537  4.5328476265641839 32.9155195278176294   T   T   T
  7.8491573619263519 23.4657275465391173 36.2624114725188633   T   T   T
  7.8491573619263484 16.3658975765485195 39.6093034172200831   T   T   T
  3.9245786809631737 21.3228324038040782 31.1366133650997234   T   T   T
  3.9245786809631777 14.2230024338134804 34.4835053098009396   T   T   T
  3.9245786809631791  7.1231724638228791 37.8303972545021736   T   T   T
  1.8386263057483956 24.1692374676692481 32.8627894326339813   T   T   T
  1.8386263057483982 17.0694074976786432 36.2096813773352082   T   T   T
  1.8386263057483949  9.9695775276880418 39.5565733220364280   T   T   T
  2.0859523752147777 22.9859324726708145 39.5565733220364351   T   T   T
  2.0859523752147773 11.1528825226864878 32.8627894326339813   T   T   T
  2.0859523752147746  4.0530525526958794 36.2096813773352153   T   T   T
  7.8491573619263519 21.3974040195580137 31.2948036506506675   T   T   T
  0.0000000000000015 14.2975740495674177 34.6416955953518908   T   T   T
  7.8491573619263511  7.1977440795768173 37.9885875400531248   T   T   T
  3.9245786809631746 23.5402991622930600 36.4206017580698074   T   T   T
  3.9245786809631742 16.4404691923024622 39.7674937027710413   T   T   T
  3.9245786809631746  4.6074192423181231 33.0737098133685876   T   T   T
  2.0859523752147791  0.5777091834545174 38.0413176352367657   T   T   T
  2.0859523752147795 14.7773691234357205 31.3475337458343155   T   T   T
  2.0859523752147786  7.6775391534451227 34.6944256905355459   T   T   T
  1.8386263057483956  1.7610141784529545 31.3475337458343155   T   T   T
  1.8386263057483980 20.6938940984278901 34.6944256905355388   T   T   T
  1.8386263057483947 13.5940641284372923 38.0413176352367728   T   T   T
  3.9245786809631777  3.3495426315657495 39.6093034172200760   T   T   T
  3.9245786809631769 17.5492025715469531 32.9155195278176365   T   T   T
  3.9245786809631746 10.4493726015563499 36.2624114725188562   T   T   T
  7.8491573619263519  1.2066474888307106 34.4835053098009467   T   T   T
  7.8491573619263528 20.1395274088056482 37.8303972545021665   T   T   T
  7.8491573619263511  8.3064774588213108 31.1366133650997234   T   T   T
