# Li24 P4 S20 Cl4
1.000000
     30.83849400        0.00000000        0.00000000
      0.00000000       30.83849400        0.00000000
      0.00000000        0.00000000       30.83849400
 Li  P  S  Cl
   648     108     540     108
Cartesian
      2.56987450        2.56987450        0.23759004
      2.56987450        2.56987450        4.90215896
      2.56987450        4.90215896        2.56987450
      2.56987450        0.23759004        2.56987450
      0.23759004        2.56987450        2.56987450
      4.90215896        2.56987450        2.56987450
      2.56987450        7.70962350        5.37733904
      2.56987450        7.70962350       10.04190796
      2.56987450       10.04190796        7.70962350
      2.56987450        5.37733904        7.70962350
      0.23759004        7.70962350        7.70962350
      4.90215896        7.70962350        7.70962350
      7.70962350        2.56987450        5.37733904
      7.70962350        2.56987450       10.04190796
      7.70962350        4.90215896        7.70962350
      7.70962350        0.23759004        7.70962350
      5.37733904        2.56987450        7.70962350
     10.04190796        2.56987450        7.70962350
      7.70962350        7.70962350        0.23759004
      7.70962350        7.70962350        4.90215896
      7.70962350       10.04190796        2.56987450
      7.70962350        5.37733904        2.56987450
      5.37733904        7.70962350        2.56987450
     10.04190796        7.70962350        2.56987450
     12.84937250        2.56987450        0.23759004
     12.84937250        2.56987450        4.90215896
     12.84937250        4.90215896        2.56987450
     12.84937250        0.23759004        2.56987450
     10.51708804        2.56987450        2.56987450
     15.18165696        2.56987450        2.56987450
     12.84937250        7.70962350        5.37733904
     12.84937250        7.70962350       10.04190796
     12.84937250       10.04190796        7.70962350
     12.84937250        5.37733904        7.70962350
     10.51708804        7.70962350        7.70962350
     15.18165696        7.70962350        7.70962350
     17.98912150        2.56987450        5.37733904
     17.98912150        2.56987450       10.04190796
     17.98912150        4.90215896        7.70962350
     17.98912150        0.23759004        7.70962350
     15.65683704        2.56987450        7.70962350
     20.32140596        2.56987450        7.70962350
     17.98912150        7.70962350        0.23759004
     17.98912150        7.70962350        4.90215896
     17.98912150       10.04190796        2.56987450
     17.98912150        5.37733904        2.56987450
     15.65683704        7.70962350        2.56987450
     20.32140596        7.70962350        2.56987450
     23.12887050        2.56987450        0.23759004
     23.12887050        2.56987450        4.90215896
     23.12887050        4.90215896        2.56987450
     23.12887050        0.23759004        2.56987450
     20.79658604        2.56987450        2.56987450
     25.46115496        2.56987450        2.56987450
     23.12887050        7.70962350        5.37733904
     23.12887050        7.70962350       10.04190796
     23.12887050       10.04190796        7.70962350
     23.12887050        5.37733904        7.70962350
     20.79658604        7.70962350        7.70962350
     25.46115496        7.70962350        7.70962350
     28.26861950        2.56987450        5.37733904
     28.26861950        2.56987450       10.04190796
     28.26861950        4.90215896        7.70962350
     28.26861950        0.23759004        7.70962350
     25.93633504        2.56987450        7.70962350
     30.60090396        2.56987450        7.70962350
     28.26861950        7.70962350        0.23759004
     28.26861950        7.70962350        4.90215896
     28.26861950       10.04190796        2.56987450
     28.26861950        5.37733904        2.56987450
     25.93633504        7.70962350        2.56987450
     30.60090396        7.70962350        2.56987450
      2.56987450       12.84937250        0.23759004
      2.56987450       12.84937250        4.90215896
      2.56987450       15.18165696        2.56987450
      2.56987450       10.51708804        2.56987450
      0.23759004       12.84937250        2.56987450
      4.90215896       12.84937250        2.56987450
      2.56987450       17.98912150        5.37733904
      2.56987450       17.98912150       10.04190796
      2.56987450       20.32140596        7.70962350
      2.56987450       15.65683704        7.70962350
      0.23759004       17.98912150        7.70962350
      4.90215896       17.98912150        7.70962350
      7.70962350       12.84937250        5.37733904
      7.70962350       12.84937250       10.04190796
      7.70962350       15.18165696        7.70962350
      7.70962350       10.51708804        7.70962350
      5.37733904       12.84937250        7.70962350
     10.04190796       12.84937250        7.70962350
      7.70962350       17.98912150        0.23759004
      7.70962350       17.98912150        4.90215896
      7.70962350       20.32140596        2.56987450
      7.70962350       15.65683704        2.56987450
      5.37733904       17.98912150        2.56987450
     10.04190796       17.98912150        2.56987450
     12.84937250       12.84937250        0.23759004
     12.84937250       12.84937250        4.90215896
     12.84937250       15.18165696        2.56987450
     12.84937250       10.51708804        2.56987450
     10.51708804       12.84937250        2.56987450
     15.18165696       12.84937250        2.56987450
     12.84937250       17.98912150        5.37733904
     12.84937250       17.98912150       10.04190796
     12.84937250       20.32140596        7.70962350
     12.84937250       15.65683704        7.70962350
     10.51708804       17.98912150        7.70962350
     15.18165696       17.98912150        7.70962350
     17.98912150       12.84937250        5.37733904
     17.98912150       12.84937250       10.04190796
     17.98912150       15.18165696        7.70962350
     17.98912150       10.51708804        7.70962350
     15.65683704       12.84937250        7.70962350
     20.32140596       12.84937250        7.70962350
     17.98912150       17.98912150        0.23759004
     17.98912150       17.98912150        4.90215896
     17.98912150       20.32140596        2.56987450
     17.98912150       15.65683704        2.56987450
     15.65683704       17.98912150        2.56987450
     20.32140596       17.98912150        2.56987450
     23.12887050       12.84937250        0.23759004
     23.12887050       12.84937250        4.90215896
     23.12887050       15.18165696        2.56987450
     23.12887050       10.51708804        2.56987450
     20.79658604       12.84937250        2.56987450
     25.46115496       12.84937250        2.56987450
     23.12887050       17.98912150        5.37733904
     23.12887050       17.98912150       10.04190796
     23.12887050       20.32140596        7.70962350
     23.12887050       15.65683704        7.70962350
     20.79658604       17.98912150        7.70962350
     25.46115496       17.98912150        7.70962350
     28.26861950       12.84937250        5.37733904
     28.26861950       12.84937250       10.04190796
     28.26861950       15.18165696        7.70962350
     28.26861950       10.51708804        7.70962350
     25.93633504       12.84937250        7.70962350
     30.60090396       12.84937250        7.70962350
     28.26861950       17.98912150        0.23759004
     28.26861950       17.98912150        4.90215896
     28.26861950       20.32140596        2.56987450
     28.26861950       15.65683704        2.56987450
     25.93633504       17.98912150        2.56987450
     30.60090396       17.98912150        2.56987450
      2.56987450       23.12887050        0.23759004
      2.56987450       23.12887050        4.90215896
      2.56987450       25.46115496        2.56987450
      2.56987450       20.79658604        2.56987450
      0.23759004       23.12887050        2.56987450
      4.90215896       23.12887050        2.56987450
      2.56987450       28.26861950        5.37733904
      2.56987450       28.26861950       10.04190796
      2.56987450       30.60090396        7.70962350
      2.56987450       25.93633504        7.70962350
      0.23759004       28.26861950        7.70962350
      4.90215896       28.26861950        7.70962350
      7.70962350       23.12887050        5.37733904
      7.70962350       23.12887050       10.04190796
      7.70962350       25.46115496        7.70962350
      7.70962350       20.79658604        7.70962350
      5.37733904       23.12887050        7.70962350
     10.04190796       23.12887050        7.70962350
      7.70962350       28.26861950        0.23759004
      7.70962350       28.26861950        4.90215896
      7.70962350       30.60090396        2.56987450
      7.70962350       25.93633504        2.56987450
      5.37733904       28.26861950        2.56987450
     10.04190796       28.26861950        2.56987450
     12.84937250       23.12887050        0.23759004
     12.84937250       23.12887050        4.90215896
     12.84937250       25.46115496        2.56987450
     12.84937250       20.79658604        2.56987450
     10.51708804       23.12887050        2.56987450
     15.18165696       23.12887050        2.56987450
     12.84937250       28.26861950        5.37733904
     12.84937250       28.26861950       10.04190796
     12.84937250       30.60090396        7.70962350
     12.84937250       25.93633504        7.70962350
     10.51708804       28.26861950        7.70962350
     15.18165696       28.26861950        7.70962350
     17.98912150       23.12887050        5.37733904
     17.98912150       23.12887050       10.04190796
     17.98912150       25.46115496        7.70962350
     17.98912150       20.79658604        7.70962350
     15.65683704       23.12887050        7.70962350
     20.32140596       23.12887050        7.70962350
     17.98912150       28.26861950        0.23759004
     17.98912150       28.26861950        4.90215896
     17.98912150       30.60090396        2.56987450
     17.98912150       25.93633504        2.56987450
     15.65683704       28.26861950        2.56987450
     20.32140596       28.26861950        2.56987450
     23.12887050       23.12887050        0.23759004
     23.12887050       23.12887050        4.90215896
     23.12887050       25.46115496        2.56987450
     23.12887050       20.79658604        2.56987450
     20.79658604       23.12887050        2.56987450
     25.46115496       23.12887050        2.56987450
     23.12887050       28.26861950        5.37733904
     23.12887050       28.26861950       10.04190796
     23.12887050       30.60090396        7.70962350
     23.12887050       25.93633504        7.70962350
     20.79658604       28.26861950        7.70962350
     25.46115496       28.26861950        7.70962350
     28.26861950       23.12887050        5.37733904
     28.26861950       23.12887050       10.04190796
     28.26861950       25.46115496        7.70962350
     28.26861950       20.79658604        7.70962350
     25.93633504       23.12887050        7.70962350
     30.60090396       23.12887050        7.70962350
     28.26861950       28.26861950        0.23759004
     28.26861950       28.26861950        4.90215896
     28.26861950       30.60090396        2.56987450
     28.26861950       25.93633504        2.56987450
     25.93633504       28.26861950        2.56987450
     30.60090396       28.26861950        2.56987450
      2.56987450        2.56987450       10.51708804
      2.56987450        2.56987450       15.18165696
      2.56987450        4.90215896       12.84937250
      2.56987450        0.23759004       12.84937250
      0.23759004        2.56987450       12.84937250
      4.90215896        2.56987450       12.84937250
      2.56987450        7.70962350       15.65683704
      2.56987450        7.70962350       20.32140596
      2.56987450       10.04190796       17.98912150
      2.56987450        5.37733904       17.98912150
      0.23759004        7.70962350       17.98912150
      4.90215896        7.70962350       17.98912150
      7.70962350        2.56987450       15.65683704
      7.70962350        2.56987450       20.32140596
      7.70962350        4.90215896       17.98912150
      7.70962350        0.23759004       17.98912150
      5.37733904        2.56987450       17.98912150
     10.04190796        2.56987450       17.98912150
      7.70962350        7.70962350       10.51708804
      7.70962350        7.70962350       15.18165696
      7.70962350       10.04190796       12.84937250
      7.70962350        5.37733904       12.84937250
      5.37733904        7.70962350       12.84937250
     10.04190796        7.70962350       12.84937250
     12.84937250        2.56987450       10.51708804
     12.84937250        2.56987450       15.18165696
     12.84937250        4.90215896       12.84937250
     12.84937250        0.23759004       12.84937250
     10.51708804        2.56987450       12.84937250
     15.18165696        2.56987450       12.84937250
     12.84937250        7.70962350       15.65683704
     12.84937250        7.70962350       20.32140596
     12.84937250       10.04190796       17.98912150
     12.84937250        5.37733904       17.98912150
     10.51708804        7.70962350       17.98912150
     15.18165696        7.70962350       17.98912150
     17.98912150        2.56987450       15.65683704
     17.98912150        2.56987450       20.32140596
     17.98912150        4.90215896       17.98912150
     17.98912150        0.23759004       17.98912150
     15.65683704        2.56987450       17.98912150
     20.32140596        2.56987450       17.98912150
     17.98912150        7.70962350       10.51708804
     17.98912150        7.70962350       15.18165696
     17.98912150       10.04190796       12.84937250
     17.98912150        5.37733904       12.84937250
     15.65683704        7.70962350       12.84937250
     20.32140596        7.70962350       12.84937250
     23.12887050        2.56987450       10.51708804
     23.12887050        2.56987450       15.18165696
     23.12887050        4.90215896       12.84937250
     23.12887050        0.23759004       12.84937250
     20.79658604        2.56987450       12.84937250
     25.46115496        2.56987450       12.84937250
     23.12887050        7.70962350       15.65683704
     23.12887050        7.70962350       20.32140596
     23.12887050       10.04190796       17.98912150
     23.12887050        5.37733904       17.98912150
     20.79658604        7.70962350       17.98912150
     25.46115496        7.70962350       17.98912150
     28.26861950        2.56987450       15.65683704
     28.26861950        2.56987450       20.32140596
     28.26861950        4.90215896       17.98912150
     28.26861950        0.23759004       17.98912150
     25.93633504        2.56987450       17.98912150
     30.60090396        2.56987450       17.98912150
     28.26861950        7.70962350       10.51708804
     28.26861950        7.70962350       15.18165696
     28.26861950       10.04190796       12.84937250
     28.26861950        5.37733904       12.84937250
     25.93633504        7.70962350       12.84937250
     30.60090396        7.70962350       12.84937250
      2.56987450       12.84937250       10.51708804
      2.56987450       12.84937250       15.18165696
      2.56987450       15.18165696       12.84937250
      2.56987450       10.51708804       12.84937250
      0.23759004       12.84937250       12.84937250
      4.90215896       12.84937250       12.84937250
      2.56987450       17.98912150       15.65683704
      2.56987450       17.98912150       20.32140596
      2.56987450       20.32140596       17.98912150
      2.56987450       15.65683704       17.98912150
      0.23759004       17.98912150       17.98912150
      4.90215896       17.98912150       17.98912150
      7.70962350       12.84937250       15.65683704
      7.70962350       12.84937250       20.32140596
      7.70962350       15.18165696       17.98912150
      7.70962350       10.51708804       17.98912150
      5.37733904       12.84937250       17.98912150
     10.04190796       12.84937250       17.98912150
      7.70962350       17.98912150       10.51708804
      7.70962350       17.98912150       15.18165696
      7.70962350       20.32140596       12.84937250
      7.70962350       15.65683704       12.84937250
      5.37733904       17.98912150       12.84937250
     10.04190796       17.98912150       12.84937250
     12.84937250       12.84937250       10.51708804
     12.84937250       12.84937250       15.18165696
     12.84937250       15.18165696       12.84937250
     12.84937250       10.51708804       12.84937250
     10.51708804       12.84937250       12.84937250
     15.18165696       12.84937250       12.84937250
     12.84937250       17.98912150       15.65683704
     12.84937250       17.98912150       20.32140596
     12.84937250       20.32140596       17.98912150
     12.84937250       15.65683704       17.98912150
     10.51708804       17.98912150       17.98912150
     15.18165696       17.98912150       17.98912150
     17.98912150       12.84937250       15.65683704
     17.98912150       12.84937250       20.32140596
     17.98912150       15.18165696       17.98912150
     17.98912150       10.51708804       17.98912150
     15.65683704       12.84937250       17.98912150
     20.32140596       12.84937250       17.98912150
     17.98912150       17.98912150       10.51708804
     17.98912150       17.98912150       15.18165696
     17.98912150       20.32140596       12.84937250
     17.98912150       15.65683704       12.84937250
     15.65683704       17.98912150       12.84937250
     20.32140596       17.98912150       12.84937250
     23.12887050       12.84937250       10.51708804
     23.12887050       12.84937250       15.18165696
     23.12887050       15.18165696       12.84937250
     23.12887050       10.51708804       12.84937250
     20.79658604       12.84937250       12.84937250
     25.46115496       12.84937250       12.84937250
     23.12887050       17.98912150       15.65683704
     23.12887050       17.98912150       20.32140596
     23.12887050       20.32140596       17.98912150
     23.12887050       15.65683704       17.98912150
     20.79658604       17.98912150       17.98912150
     25.46115496       17.98912150       17.98912150
     28.26861950       12.84937250       15.65683704
     28.26861950       12.84937250       20.32140596
     28.26861950       15.18165696       17.98912150
     28.26861950       10.51708804       17.98912150
     25.93633504       12.84937250       17.98912150
     30.60090396       12.84937250       17.98912150
     28.26861950       17.98912150       10.51708804
     28.26861950       17.98912150       15.18165696
     28.26861950       20.32140596       12.84937250
     28.26861950       15.65683704       12.84937250
     25.93633504       17.98912150       12.84937250
     30.60090396       17.98912150       12.84937250
      2.56987450       23.12887050       10.51708804
      2.56987450       23.12887050       15.18165696
      2.56987450       25.46115496       12.84937250
      2.56987450       20.79658604       12.84937250
      0.23759004       23.12887050       12.84937250
      4.90215896       23.12887050       12.84937250
      2.56987450       28.26861950       15.65683704
      2.56987450       28.26861950       20.32140596
      2.56987450       30.60090396       17.98912150
      2.56987450       25.93633504       17.98912150
      0.23759004       28.26861950       17.98912150
      4.90215896       28.26861950       17.98912150
      7.70962350       23.12887050       15.65683704
      7.70962350       23.12887050       20.32140596
      7.70962350       25.46115496       17.98912150
      7.70962350       20.79658604       17.98912150
      5.37733904       23.12887050       17.98912150
     10.04190796       23.12887050       17.98912150
      7.70962350       28.26861950       10.51708804
      7.70962350       28.26861950       15.18165696
      7.70962350       30.60090396       12.84937250
      7.70962350       25.93633504       12.84937250
      5.37733904       28.26861950       12.84937250
     10.04190796       28.26861950       12.84937250
     12.84937250       23.12887050       10.51708804
     12.84937250       23.12887050       15.18165696
     12.84937250       25.46115496       12.84937250
     12.84937250       20.79658604       12.84937250
     10.51708804       23.12887050       12.84937250
     15.18165696       23.12887050       12.84937250
     12.84937250       28.26861950       15.65683704
     12.84937250       28.26861950       20.32140596
     12.84937250       30.60090396       17.98912150
     12.84937250       25.93633504       17.98912150
     10.51708804       28.26861950       17.98912150
     15.18165696       28.26861950       17.98912150
     17.98912150       23.12887050       15.65683704
     17.98912150       23.12887050       20.32140596
     17.98912150       25.46115496       17.98912150
     17.98912150       20.79658604       17.98912150
     15.65683704       23.12887050       17.98912150
     20.32140596       23.12887050       17.98912150
     17.98912150       28.26861950       10.51708804
     17.98912150       28.26861950       15.18165696
     17.98912150       30.60090396       12.84937250
     17.98912150       25.93633504       12.84937250
     15.65683704       28.26861950       12.84937250
     20.32140596       28.26861950       12.84937250
     23.12887050       23.12887050       10.51708804
     23.12887050       23.12887050       15.18165696
     23.12887050       25.46115496       12.84937250
     23.12887050       20.79658604       12.84937250
     20.79658604       23.12887050       12.84937250
     25.46115496       23.12887050       12.84937250
     23.12887050       28.26861950       15.65683704
     23.12887050       28.26861950       20.32140596
     23.12887050       30.60090396       17.98912150
     23.12887050       25.93633504       17.98912150
     20.79658604       28.26861950       17.98912150
     25.46115496       28.26861950       17.98912150
     28.26861950       23.12887050       15.65683704
     28.26861950       23.12887050       20.32140596
     28.26861950       25.46115496       17.98912150
     28.26861950       20.79658604       17.98912150
     25.93633504       23.12887050       17.98912150
     30.60090396       23.12887050       17.98912150
     28.26861950       28.26861950       10.51708804
     28.26861950       28.26861950       15.18165696
     28.26861950       30.60090396       12.84937250
     28.26861950       25.93633504       12.84937250
     25.93633504       28.26861950       12.84937250
     30.60090396       28.26861950       12.84937250
      2.56987450        2.56987450       20.79658604
      2.56987450        2.56987450       25.46115496
      2.56987450        4.90215896       23.12887050
      2.56987450        0.23759004       23.12887050
      0.23759004        2.56987450       23.12887050
      4.90215896        2.56987450       23.12887050
      2.56987450        7.70962350       25.93633504
      2.56987450        7.70962350       30.60090396
      2.56987450       10.04190796       28.26861950
      2.56987450        5.37733904       28.26861950
      0.23759004        7.70962350       28.26861950
      4.90215896        7.70962350       28.26861950
      7.70962350        2.56987450       25.93633504
      7.70962350        2.56987450       30.60090396
      7.70962350        4.90215896       28.26861950
      7.70962350        0.23759004       28.26861950
      5.37733904        2.56987450       28.26861950
     10.04190796        2.56987450       28.26861950
      7.70962350        7.70962350       20.79658604
      7.70962350        7.70962350       25.46115496
      7.70962350       10.04190796       23.12887050
      7.70962350        5.37733904       23.12887050
      5.37733904        7.70962350       23.12887050
     10.04190796        7.70962350       23.12887050
     12.84937250        2.56987450       20.79658604
     12.84937250        2.56987450       25.46115496
     12.84937250        4.90215896       23.12887050
     12.84937250        0.23759004       23.12887050
     10.51708804        2.56987450       23.12887050
     15.18165696        2.56987450       23.12887050
     12.84937250        7.70962350       25.93633504
     12.84937250        7.70962350       30.60090396
     12.84937250       10.04190796       28.26861950
     12.84937250        5.37733904       28.26861950
     10.51708804        7.70962350       28.26861950
     15.18165696        7.70962350       28.26861950
     17.98912150        2.56987450       25.93633504
     17.98912150        2.56987450       30.60090396
     17.98912150        4.90215896       28.26861950
     17.98912150        0.23759004       28.26861950
     15.65683704        2.56987450       28.26861950
     20.32140596        2.56987450       28.26861950
     17.98912150        7.70962350       20.79658604
     17.98912150        7.70962350       25.46115496
     17.98912150       10.04190796       23.12887050
     17.98912150        5.37733904       23.12887050
     15.65683704        7.70962350       23.12887050
     20.32140596        7.70962350       23.12887050
     23.12887050        2.56987450       20.79658604
     23.12887050        2.56987450       25.46115496
     23.12887050        4.90215896       23.12887050
     23.12887050        0.23759004       23.12887050
     20.79658604        2.56987450       23.12887050
     25.46115496        2.56987450       23.12887050
     23.12887050        7.70962350       25.93633504
     23.12887050        7.70962350       30.60090396
     23.12887050       10.04190796       28.26861950
     23.12887050        5.37733904       28.26861950
     20.79658604        7.70962350       28.26861950
     25.46115496        7.70962350       28.26861950
     28.26861950        2.56987450       25.93633504
     28.26861950        2.56987450       30.60090396
     28.26861950        4.90215896       28.26861950
     28.26861950        0.23759004       28.26861950
     25.93633504        2.56987450       28.26861950
     30.60090396        2.56987450       28.26861950
     28.26861950        7.70962350       20.79658604
     28.26861950        7.70962350       25.46115496
     28.26861950       10.04190796       23.12887050
     28.26861950        5.37733904       23.12887050
     25.93633504        7.70962350       23.12887050
     30.60090396        7.70962350       23.12887050
      2.56987450       12.84937250       20.79658604
      2.56987450       12.84937250       25.46115496
      2.56987450       15.18165696       23.12887050
      2.56987450       10.51708804       23.12887050
      0.23759004       12.84937250       23.12887050
      4.90215896       12.84937250       23.12887050
      2.56987450       17.98912150       25.93633504
      2.56987450       17.98912150       30.60090396
      2.56987450       20.32140596       28.26861950
      2.56987450       15.65683704       28.26861950
      0.23759004       17.98912150       28.26861950
      4.90215896       17.98912150       28.26861950
      7.70962350       12.84937250       25.93633504
      7.70962350       12.84937250       30.60090396
      7.70962350       15.18165696       28.26861950
      7.70962350       10.51708804       28.26861950
      5.37733904       12.84937250       28.26861950
     10.04190796       12.84937250       28.26861950
      7.70962350       17.98912150       20.79658604
      7.70962350       17.98912150       25.46115496
      7.70962350       20.32140596       23.12887050
      7.70962350       15.65683704       23.12887050
      5.37733904       17.98912150       23.12887050
     10.04190796       17.98912150       23.12887050
     12.84937250       12.84937250       20.79658604
     12.84937250       12.84937250       25.46115496
     12.84937250       15.18165696       23.12887050
     12.84937250       10.51708804       23.12887050
     10.51708804       12.84937250       23.12887050
     15.18165696       12.84937250       23.12887050
     12.84937250       17.98912150       25.93633504
     12.84937250       17.98912150       30.60090396
     12.84937250       20.32140596       28.26861950
     12.84937250       15.65683704       28.26861950
     10.51708804       17.98912150       28.26861950
     15.18165696       17.98912150       28.26861950
     17.98912150       12.84937250       25.93633504
     17.98912150       12.84937250       30.60090396
     17.98912150       15.18165696       28.26861950
     17.98912150       10.51708804       28.26861950
     15.65683704       12.84937250       28.26861950
     20.32140596       12.84937250       28.26861950
     17.98912150       17.98912150       20.79658604
     17.98912150       17.98912150       25.46115496
     17.98912150       20.32140596       23.12887050
     17.98912150       15.65683704       23.12887050
     15.65683704       17.98912150       23.12887050
     20.32140596       17.98912150       23.12887050
     23.12887050       12.84937250       20.79658604
     23.12887050       12.84937250       25.46115496
     23.12887050       15.18165696       23.12887050
     23.12887050       10.51708804       23.12887050
     20.79658604       12.84937250       23.12887050
     25.46115496       12.84937250       23.12887050
     23.12887050       17.98912150       25.93633504
     23.12887050       17.98912150       30.60090396
     23.12887050       20.32140596       28.26861950
     23.12887050       15.65683704       28.26861950
     20.79658604       17.98912150       28.26861950
     25.46115496       17.98912150       28.26861950
     28.26861950       12.84937250       25.93633504
     28.26861950       12.84937250       30.60090396
     28.26861950       15.18165696       28.26861950
     28.26861950       10.51708804       28.26861950
     25.93633504       12.84937250       28.26861950
     30.60090396       12.84937250       28.26861950
     28.26861950       17.98912150       20.79658604
     28.26861950       17.98912150       25.46115496
     28.26861950       20.32140596       23.12887050
     28.26861950       15.65683704       23.12887050
     25.93633504       17.98912150       23.12887050
     30.60090396       17.98912150       23.12887050
      2.56987450       23.12887050       20.79658604
      2.56987450       23.12887050       25.46115496
      2.56987450       25.46115496       23.12887050
      2.56987450       20.79658604       23.12887050
      0.23759004       23.12887050       23.12887050
      4.90215896       23.12887050       23.12887050
      2.56987450       28.26861950       25.93633504
      2.56987450       28.26861950       30.60090396
      2.56987450       30.60090396       28.26861950
      2.56987450       25.93633504       28.26861950
      0.23759004       28.26861950       28.26861950
      4.90215896       28.26861950       28.26861950
      7.70962350       23.12887050       25.93633504
      7.70962350       23.12887050       30.60090396
      7.70962350       25.46115496       28.26861950
      7.70962350       20.79658604       28.26861950
      5.37733904       23.12887050       28.26861950
     10.04190796       23.12887050       28.26861950
      7.70962350       28.26861950       20.79658604
      7.70962350       28.26861950       25.46115496
      7.70962350       30.60090396       23.12887050
      7.70962350       25.93633504       23.12887050
      5.37733904       28.26861950       23.12887050
     10.04190796       28.26861950       23.12887050
     12.84937250       23.12887050       20.79658604
     12.84937250       23.12887050       25.46115496
     12.84937250       25.46115496       23.12887050
     12.84937250       20.79658604       23.12887050
     10.51708804       23.12887050       23.12887050
     15.18165696       23.12887050       23.12887050
     12.84937250       28.26861950       25.93633504
     12.84937250       28.26861950       30.60090396
     12.84937250       30.60090396       28.26861950
     12.84937250       25.93633504       28.26861950
     10.51708804       28.26861950       28.26861950
     15.18165696       28.26861950       28.26861950
     17.98912150       23.12887050       25.93633504
     17.98912150       23.12887050       30.60090396
     17.98912150       25.46115496       28.26861950
     17.98912150       20.79658604       28.26861950
     15.65683704       23.12887050       28.26861950
     20.32140596       23.12887050       28.26861950
     17.98912150       28.26861950       20.79658604
     17.98912150       28.26861950       25.46115496
     17.98912150       30.60090396       23.12887050
     17.98912150       25.93633504       23.12887050
     15.65683704       28.26861950       23.12887050
     20.32140596       28.26861950       23.12887050
     23.12887050       23.12887050       20.79658604
     23.12887050       23.12887050       25.46115496
     23.12887050       25.46115496       23.12887050
     23.12887050       20.79658604       23.12887050
     20.79658604       23.12887050       23.12887050
     25.46115496       23.12887050       23.12887050
     23.12887050       28.26861950       25.93633504
     23.12887050       28.26861950       30.60090396
     23.12887050       30.60090396       28.26861950
     23.12887050       25.93633504       28.26861950
     20.79658604       28.26861950       28.26861950
     25.46115496       28.26861950       28.26861950
     28.26861950       23.12887050       25.93633504
     28.26861950       23.12887050       30.60090396
     28.26861950       25.46115496       28.26861950
     28.26861950       20.79658604       28.26861950
     25.93633504       23.12887050       28.26861950
     30.60090396       23.12887050       28.26861950
     28.26861950       28.26861950       20.79658604
     28.26861950       28.26861950       25.46115496
     28.26861950       30.60090396       23.12887050
     28.26861950       25.93633504       23.12887050
     25.93633504       28.26861950       23.12887050
     30.60090396       28.26861950       23.12887050
      5.13974900        0.00000000        0.00000000
      5.13974900        5.13974900        5.13974900
      0.00000000        0.00000000        5.13974900
      0.00000000        5.13974900        0.00000000
     15.41924700        0.00000000        0.00000000
     15.41924700        5.13974900        5.13974900
     10.27949800        0.00000000        5.13974900
     10.27949800        5.13974900        0.00000000
     25.69874500        0.00000000        0.00000000
     25.69874500        5.13974900        5.13974900
     20.55899600        0.00000000        5.13974900
     20.55899600        5.13974900        0.00000000
      5.13974900       10.27949800        0.00000000
      5.13974900       15.41924700        5.13974900
      0.00000000       10.27949800        5.13974900
      0.00000000       15.41924700        0.00000000
     15.41924700       10.27949800        0.00000000
     15.41924700       15.41924700        5.13974900
     10.27949800       10.27949800        5.13974900
     10.27949800       15.41924700        0.00000000
     25.69874500       10.27949800        0.00000000
     25.69874500       15.41924700        5.13974900
     20.55899600       10.27949800        5.13974900
     20.55899600       15.41924700        0.00000000
      5.13974900       20.55899600        0.00000000
      5.13974900       25.69874500        5.13974900
      0.00000000       20.55899600        5.13974900
      0.00000000       25.69874500        0.00000000
     15.41924700       20.55899600        0.00000000
     15.41924700       25.69874500        5.13974900
     10.27949800       20.55899600        5.13974900
     10.27949800       25.69874500        0.00000000
     25.69874500       20.55899600        0.00000000
     25.69874500       25.69874500        5.13974900
     20.55899600       20.55899600        5.13974900
     20.55899600       25.69874500        0.00000000
      5.13974900        0.00000000       10.27949800
      5.13974900        5.13974900       15.41924700
      0.00000000        0.00000000       15.41924700
      0.00000000        5.13974900       10.27949800
     15.41924700        0.00000000       10.27949800
     15.41924700        5.13974900       15.41924700
     10.27949800        0.00000000       15.41924700
     10.27949800        5.13974900       10.27949800
     25.69874500        0.00000000       10.27949800
     25.69874500        5.13974900       15.41924700
     20.55899600        0.00000000       15.41924700
     20.55899600        5.13974900       10.27949800
      5.13974900       10.27949800       10.27949800
      5.13974900       15.41924700       15.41924700
      0.00000000       10.27949800       15.41924700
      0.00000000       15.41924700       10.27949800
     15.41924700       10.27949800       10.27949800
     15.41924700       15.41924700       15.41924700
     10.27949800       10.27949800       15.41924700
     10.27949800       15.41924700       10.27949800
     25.69874500       10.27949800       10.27949800
     25.69874500       15.41924700       15.41924700
     20.55899600       10.27949800       15.41924700
     20.55899600       15.41924700       10.27949800
      5.13974900       20.55899600       10.27949800
      5.13974900       25.69874500       15.41924700
      0.00000000       20.55899600       15.41924700
      0.00000000       25.69874500       10.27949800
     15.41924700       20.55899600       10.27949800
     15.41924700       25.69874500       15.41924700
     10.27949800       20.55899600       15.41924700
     10.27949800       25.69874500       10.27949800
     25.69874500       20.55899600       10.27949800
     25.69874500       25.69874500       15.41924700
     20.55899600       20.55899600       15.41924700
     20.55899600       25.69874500       10.27949800
      5.13974900        0.00000000       20.55899600
      5.13974900        5.13974900       25.69874500
      0.00000000        0.00000000       25.69874500
      0.00000000        5.13974900       20.55899600
     15.41924700        0.00000000       20.55899600
     15.41924700        5.13974900       25.69874500
     10.27949800        0.00000000       25.69874500
     10.27949800        5.13974900       20.55899600
     25.69874500        0.00000000       20.55899600
     25.69874500        5.13974900       25.69874500
     20.55899600        0.00000000       25.69874500
     20.55899600        5.13974900       20.55899600
      5.13974900       10.27949800       20.55899600
      5.13974900       15.41924700       25.69874500
      0.00000000       10.27949800       25.69874500
      0.00000000       15.41924700       20.55899600
     15.41924700       10.27949800       20.55899600
     15.41924700       15.41924700       25.69874500
     10.27949800       10.27949800       25.69874500
     10.27949800       15.41924700       20.55899600
     25.69874500       10.27949800       20.55899600
     25.69874500       15.41924700       25.69874500
     20.55899600       10.27949800       25.69874500
     20.55899600       15.41924700       20.55899600
      5.13974900       20.55899600       20.55899600
      5.13974900       25.69874500       25.69874500
      0.00000000       20.55899600       25.69874500
      0.00000000       25.69874500       20.55899600
     15.41924700       20.55899600       20.55899600
     15.41924700       25.69874500       25.69874500
     10.27949800       20.55899600       25.69874500
     10.27949800       25.69874500       20.55899600
     25.69874500       20.55899600       20.55899600
     25.69874500       25.69874500       25.69874500
     20.55899600       20.55899600       25.69874500
     20.55899600       25.69874500       20.55899600
      1.18751156        3.95223744        9.09198644
      9.09198644        3.95223744        1.18751156
      3.95223744        1.18751156        9.09198644
      6.32726056        1.18751156        1.18751156
      2.56987450        2.56987450        2.56987450
      1.18751156        9.09198644        3.95223744
      9.09198644        9.09198644        6.32726056
      3.95223744        6.32726056        3.95223744
      6.32726056        6.32726056        6.32726056
      2.56987450        7.70962350        7.70962350
      6.32726056        3.95223744        3.95223744
      3.95223744        3.95223744        6.32726056
      9.09198644        1.18751156        3.95223744
      1.18751156        1.18751156        6.32726056
      7.70962350        2.56987450        7.70962350
      6.32726056        9.09198644        9.09198644
      3.95223744        9.09198644        1.18751156
      9.09198644        6.32726056        9.09198644
      1.18751156        6.32726056        1.18751156
      7.70962350        7.70962350        2.56987450
     11.46700956        3.95223744        9.09198644
     19.37148444        3.95223744        1.18751156
     14.23173544        1.18751156        9.09198644
     16.60675856        1.18751156        1.18751156
     12.84937250        2.56987450        2.56987450
     11.46700956        9.09198644        3.95223744
     19.37148444        9.09198644        6.32726056
     14.23173544        6.32726056        3.95223744
     16.60675856        6.32726056        6.32726056
     12.84937250        7.70962350        7.70962350
     16.60675856        3.95223744        3.95223744
     14.23173544        3.95223744        6.32726056
     19.37148444        1.18751156        3.95223744
     11.46700956        1.18751156        6.32726056
     17.98912150        2.56987450        7.70962350
     16.60675856        9.09198644        9.09198644
     14.23173544        9.09198644        1.18751156
     19.37148444        6.32726056        9.09198644
     11.46700956        6.32726056        1.18751156
     17.98912150        7.70962350        2.56987450
     21.74650756        3.95223744        9.09198644
     29.65098244        3.95223744        1.18751156
     24.51123344        1.18751156        9.09198644
     26.88625656        1.18751156        1.18751156
     23.12887050        2.56987450        2.56987450
     21.74650756        9.09198644        3.95223744
     29.65098244        9.09198644        6.32726056
     24.51123344        6.32726056        3.95223744
     26.88625656        6.32726056        6.32726056
     23.12887050        7.70962350        7.70962350
     26.88625656        3.95223744        3.95223744
     24.51123344        3.95223744        6.32726056
     29.65098244        1.18751156        3.95223744
     21.74650756        1.18751156        6.32726056
     28.26861950        2.56987450        7.70962350
     26.88625656        9.09198644        9.09198644
     24.51123344        9.09198644        1.18751156
     29.65098244        6.32726056        9.09198644
     21.74650756        6.32726056        1.18751156
     28.26861950        7.70962350        2.56987450
      1.18751156       14.23173544        9.09198644
      9.09198644       14.23173544        1.18751156
      3.95223744       11.46700956        9.09198644
      6.32726056       11.46700956        1.18751156
      2.56987450       12.84937250        2.56987450
      1.18751156       19.37148444        3.95223744
      9.09198644       19.37148444        6.32726056
      3.95223744       16.60675856        3.95223744
      6.32726056       16.60675856        6.32726056
      2.56987450       17.98912150        7.70962350
      6.32726056       14.23173544        3.95223744
      3.95223744       14.23173544        6.32726056
      9.09198644       11.46700956        3.95223744
      1.18751156       11.46700956        6.32726056
      7.70962350       12.84937250        7.70962350
      6.32726056       19.37148444        9.09198644
      3.95223744       19.37148444        1.18751156
      9.09198644       16.60675856        9.09198644
      1.18751156       16.60675856        1.18751156
      7.70962350       17.98912150        2.56987450
     11.46700956       14.23173544        9.09198644
     19.37148444       14.23173544        1.18751156
     14.23173544       11.46700956        9.09198644
     16.60675856       11.46700956        1.18751156
     12.84937250       12.84937250        2.56987450
     11.46700956       19.37148444        3.95223744
     19.37148444       19.37148444        6.32726056
     14.23173544       16.60675856        3.95223744
     16.60675856       16.60675856        6.32726056
     12.84937250       17.98912150        7.70962350
     16.60675856       14.23173544        3.95223744
     14.23173544       14.23173544        6.32726056
     19.37148444       11.46700956        3.95223744
     11.46700956       11.46700956        6.32726056
     17.98912150       12.84937250        7.70962350
     16.60675856       19.37148444        9.09198644
     14.23173544       19.37148444        1.18751156
     19.37148444       16.60675856        9.09198644
     11.46700956       16.60675856        1.18751156
     17.98912150       17.98912150        2.56987450
     21.74650756       14.23173544        9.09198644
     29.65098244       14.23173544        1.18751156
     24.51123344       11.46700956        9.09198644
     26.88625656       11.46700956        1.18751156
     23.12887050       12.84937250        2.56987450
     21.74650756       19.37148444        3.95223744
     29.65098244       19.37148444        6.32726056
     24.51123344       16.60675856        3.95223744
     26.88625656       16.60675856        6.32726056
     23.12887050       17.98912150        7.70962350
     26.88625656       14.23173544        3.95223744
     24.51123344       14.23173544        6.32726056
     29.65098244       11.46700956        3.95223744
     21.74650756       11.46700956        6.32726056
     28.26861950       12.84937250        7.70962350
     26.88625656       19.37148444        9.09198644
     24.51123344       19.37148444        1.18751156
     29.65098244       16.60675856        9.09198644
     21.74650756       16.60675856        1.18751156
     28.26861950       17.98912150        2.56987450
      1.18751156       24.51123344        9.09198644
      9.09198644       24.51123344        1.18751156
      3.95223744       21.74650756        9.09198644
      6.32726056       21.74650756        1.18751156
      2.56987450       23.12887050        2.56987450
      1.18751156       29.65098244        3.95223744
      9.09198644       29.65098244        6.32726056
      3.95223744       26.88625656        3.95223744
      6.32726056       26.88625656        6.32726056
      2.56987450       28.26861950        7.70962350
      6.32726056       24.51123344        3.95223744
      3.95223744       24.51123344        6.32726056
      9.09198644       21.74650756        3.95223744
      1.18751156       21.74650756        6.32726056
      7.70962350       23.12887050        7.70962350
      6.32726056       29.65098244        9.09198644
      3.95223744       29.65098244        1.18751156
      9.09198644       26.88625656        9.09198644
      1.18751156       26.88625656        1.18751156
      7.70962350       28.26861950        2.56987450
     11.46700956       24.51123344        9.09198644
     19.37148444       24.51123344        1.18751156
     14.23173544       21.74650756        9.09198644
     16.60675856       21.74650756        1.18751156
     12.84937250       23.12887050        2.56987450
     11.46700956       29.65098244        3.95223744
     19.37148444       29.65098244        6.32726056
     14.23173544       26.88625656        3.95223744
     16.60675856       26.88625656        6.32726056
     12.84937250       28.26861950        7.70962350
     16.60675856       24.51123344        3.95223744
     14.23173544       24.51123344        6.32726056
     19.37148444       21.74650756        3.95223744
     11.46700956       21.74650756        6.32726056
     17.98912150       23.12887050        7.70962350
     16.60675856       29.65098244        9.09198644
     14.23173544       29.65098244        1.18751156
     19.37148444       26.88625656        9.09198644
     11.46700956       26.88625656        1.18751156
     17.98912150       28.26861950        2.56987450
     21.74650756       24.51123344        9.09198644
     29.65098244       24.51123344        1.18751156
     24.51123344       21.74650756        9.09198644
     26.88625656       21.74650756        1.18751156
     23.12887050       23.12887050        2.56987450
     21.74650756       29.65098244        3.95223744
     29.65098244       29.65098244        6.32726056
     24.51123344       26.88625656        3.95223744
     26.88625656       26.88625656        6.32726056
     23.12887050       28.26861950        7.70962350
     26.88625656       24.51123344        3.95223744
     24.51123344       24.51123344        6.32726056
     29.65098244       21.74650756        3.95223744
     21.74650756       21.74650756        6.32726056
     28.26861950       23.12887050        7.70962350
     26.88625656       29.65098244        9.09198644
     24.51123344       29.65098244        1.18751156
     29.65098244       26.88625656        9.09198644
     21.74650756       26.88625656        1.18751156
     28.26861950       28.26861950        2.56987450
      1.18751156        3.95223744       19.37148444
      9.09198644        3.95223744       11.46700956
      3.95223744        1.18751156       19.37148444
      6.32726056        1.18751156       11.46700956
      2.56987450        2.56987450       12.84937250
      1.18751156        9.09198644       14.23173544
      9.09198644        9.09198644       16.60675856
      3.95223744        6.32726056       14.23173544
      6.32726056        6.32726056       16.60675856
      2.56987450        7.70962350       17.98912150
      6.32726056        3.95223744       14.23173544
      3.95223744        3.95223744       16.60675856
      9.09198644        1.18751156       14.23173544
      1.18751156        1.18751156       16.60675856
      7.70962350        2.56987450       17.98912150
      6.32726056        9.09198644       19.37148444
      3.95223744        9.09198644       11.46700956
      9.09198644        6.32726056       19.37148444
      1.18751156        6.32726056       11.46700956
      7.70962350        7.70962350       12.84937250
     11.46700956        3.95223744       19.37148444
     19.37148444        3.95223744       11.46700956
     14.23173544        1.18751156       19.37148444
     16.60675856        1.18751156       11.46700956
     12.84937250        2.56987450       12.84937250
     11.46700956        9.09198644       14.23173544
     19.37148444        9.09198644       16.60675856
     14.23173544        6.32726056       14.23173544
     16.60675856        6.32726056       16.60675856
     12.84937250        7.70962350       17.98912150
     16.60675856        3.95223744       14.23173544
     14.23173544        3.95223744       16.60675856
     19.37148444        1.18751156       14.23173544
     11.46700956        1.18751156       16.60675856
     17.98912150        2.56987450       17.98912150
     16.60675856        9.09198644       19.37148444
     14.23173544        9.09198644       11.46700956
     19.37148444        6.32726056       19.37148444
     11.46700956        6.32726056       11.46700956
     17.98912150        7.70962350       12.84937250
     21.74650756        3.95223744       19.37148444
     29.65098244        3.95223744       11.46700956
     24.51123344        1.18751156       19.37148444
     26.88625656        1.18751156       11.46700956
     23.12887050        2.56987450       12.84937250
     21.74650756        9.09198644       14.23173544
     29.65098244        9.09198644       16.60675856
     24.51123344        6.32726056       14.23173544
     26.88625656        6.32726056       16.60675856
     23.12887050        7.70962350       17.98912150
     26.88625656        3.95223744       14.23173544
     24.51123344        3.95223744       16.60675856
     29.65098244        1.18751156       14.23173544
     21.74650756        1.18751156       16.60675856
     28.26861950        2.56987450       17.98912150
     26.88625656        9.09198644       19.37148444
     24.51123344        9.09198644       11.46700956
     29.65098244        6.32726056       19.37148444
     21.74650756        6.32726056       11.46700956
     28.26861950        7.70962350       12.84937250
      1.18751156       14.23173544       19.37148444
      9.09198644       14.23173544       11.46700956
      3.95223744       11.46700956       19.37148444
      6.32726056       11.46700956       11.46700956
      2.56987450       12.84937250       12.84937250
      1.18751156       19.37148444       14.23173544
      9.09198644       19.37148444       16.60675856
      3.95223744       16.60675856       14.23173544
      6.32726056       16.60675856       16.60675856
      2.56987450       17.98912150       17.98912150
      6.32726056       14.23173544       14.23173544
      3.95223744       14.23173544       16.60675856
      9.09198644       11.46700956       14.23173544
      1.18751156       11.46700956       16.60675856
      7.70962350       12.84937250       17.98912150
      6.32726056       19.37148444       19.37148444
      3.95223744       19.37148444       11.46700956
      9.09198644       16.60675856       19.37148444
      1.18751156       16.60675856       11.46700956
      7.70962350       17.98912150       12.84937250
     11.46700956       14.23173544       19.37148444
     19.37148444       14.23173544       11.46700956
     14.23173544       11.46700956       19.37148444
     16.60675856       11.46700956       11.46700956
     12.84937250       12.84937250       12.84937250
     11.46700956       19.37148444       14.23173544
     19.37148444       19.37148444       16.60675856
     14.23173544       16.60675856       14.23173544
     16.60675856       16.60675856       16.60675856
     12.84937250       17.98912150       17.98912150
     16.60675856       14.23173544       14.23173544
     14.23173544       14.23173544       16.60675856
     19.37148444       11.46700956       14.23173544
     11.46700956       11.46700956       16.60675856
     17.98912150       12.84937250       17.98912150
     16.60675856       19.37148444       19.37148444
     14.23173544       19.37148444       11.46700956
     19.37148444       16.60675856       19.37148444
     11.46700956       16.60675856       11.46700956
     17.98912150       17.98912150       12.84937250
     21.74650756       14.23173544       19.37148444
     29.65098244       14.23173544       11.46700956
     24.51123344       11.46700956       19.37148444
     26.88625656       11.46700956       11.46700956
     23.12887050       12.84937250       12.84937250
     21.74650756       19.37148444       14.23173544
     29.65098244       19.37148444       16.60675856
     24.51123344       16.60675856       14.23173544
     26.88625656       16.60675856       16.60675856
     23.12887050       17.98912150       17.98912150
     26.88625656       14.23173544       14.23173544
     24.51123344       14.23173544       16.60675856
     29.65098244       11.46700956       14.23173544
     21.74650756       11.46700956       16.60675856
     28.26861950       12.84937250       17.98912150
     26.88625656       19.37148444       19.37148444
     24.51123344       19.37148444       11.46700956
     29.65098244       16.60675856       19.37148444
     21.74650756       16.60675856       11.46700956
     28.26861950       17.98912150       12.84937250
      1.18751156       24.51123344       19.37148444
      9.09198644       24.51123344       11.46700956
      3.95223744       21.74650756       19.37148444
      6.32726056       21.74650756       11.46700956
      2.56987450       23.12887050       12.84937250
      1.18751156       29.65098244       14.23173544
      9.09198644       29.65098244       16.60675856
      3.95223744       26.88625656       14.23173544
      6.32726056       26.88625656       16.60675856
      2.56987450       28.26861950       17.98912150
      6.32726056       24.51123344       14.23173544
      3.95223744       24.51123344       16.60675856
      9.09198644       21.74650756       14.23173544
      1.18751156       21.74650756       16.60675856
      7.70962350       23.12887050       17.98912150
      6.32726056       29.65098244       19.37148444
      3.95223744       29.65098244       11.46700956
      9.09198644       26.88625656       19.37148444
      1.18751156       26.88625656       11.46700956
      7.70962350       28.26861950       12.84937250
     11.46700956       24.51123344       19.37148444
     19.37148444       24.51123344       11.46700956
     14.23173544       21.74650756       19.37148444
     16.60675856       21.74650756       11.46700956
     12.84937250       23.12887050       12.84937250
     11.46700956       29.65098244       14.23173544
     19.37148444       29.65098244       16.60675856
     14.23173544       26.88625656       14.23173544
     16.60675856       26.88625656       16.60675856
     12.84937250       28.26861950       17.98912150
     16.60675856       24.51123344       14.23173544
     14.23173544       24.51123344       16.60675856
     19.37148444       21.74650756       14.23173544
     11.46700956       21.74650756       16.60675856
     17.98912150       23.12887050       17.98912150
     16.60675856       29.65098244       19.37148444
     14.23173544       29.65098244       11.46700956
     19.37148444       26.88625656       19.37148444
     11.46700956       26.88625656       11.46700956
     17.98912150       28.26861950       12.84937250
     21.74650756       24.51123344       19.37148444
     29.65098244       24.51123344       11.46700956
     24.51123344       21.74650756       19.37148444
     26.88625656       21.74650756       11.46700956
     23.12887050       23.12887050       12.84937250
     21.74650756       29.65098244       14.23173544
     29.65098244       29.65098244       16.60675856
     24.51123344       26.88625656       14.23173544
     26.88625656       26.88625656       16.60675856
     23.12887050       28.26861950       17.98912150
     26.88625656       24.51123344       14.23173544
     24.51123344       24.51123344       16.60675856
     29.65098244       21.74650756       14.23173544
     21.74650756       21.74650756       16.60675856
     28.26861950       23.12887050       17.98912150
     26.88625656       29.65098244       19.37148444
     24.51123344       29.65098244       11.46700956
     29.65098244       26.88625656       19.37148444
     21.74650756       26.88625656       11.46700956
     28.26861950       28.26861950       12.84937250
      1.18751156        3.95223744       29.65098244
      9.09198644        3.95223744       21.74650756
      3.95223744        1.18751156       29.65098244
      6.32726056        1.18751156       21.74650756
      2.56987450        2.56987450       23.12887050
      1.18751156        9.09198644       24.51123344
      9.09198644        9.09198644       26.88625656
      3.95223744        6.32726056       24.51123344
      6.32726056        6.32726056       26.88625656
      2.56987450        7.70962350       28.26861950
      6.32726056        3.95223744       24.51123344
      3.95223744        3.95223744       26.88625656
      9.09198644        1.18751156       24.51123344
      1.18751156        1.18751156       26.88625656
      7.70962350        2.56987450       28.26861950
      6.32726056        9.09198644       29.65098244
      3.95223744        9.09198644       21.74650756
      9.09198644        6.32726056       29.65098244
      1.18751156        6.32726056       21.74650756
      7.70962350        7.70962350       23.12887050
     11.46700956        3.95223744       29.65098244
     19.37148444        3.95223744       21.74650756
     14.23173544        1.18751156       29.65098244
     16.60675856        1.18751156       21.74650756
     12.84937250        2.56987450       23.12887050
     11.46700956        9.09198644       24.51123344
     19.37148444        9.09198644       26.88625656
     14.23173544        6.32726056       24.51123344
     16.60675856        6.32726056       26.88625656
     12.84937250        7.70962350       28.26861950
     16.60675856        3.95223744       24.51123344
     14.23173544        3.95223744       26.88625656
     19.37148444        1.18751156       24.51123344
     11.46700956        1.18751156       26.88625656
     17.98912150        2.56987450       28.26861950
     16.60675856        9.09198644       29.65098244
     14.23173544        9.09198644       21.74650756
     19.37148444        6.32726056       29.65098244
     11.46700956        6.32726056       21.74650756
     17.98912150        7.70962350       23.12887050
     21.74650756        3.95223744       29.65098244
     29.65098244        3.95223744       21.74650756
     24.51123344        1.18751156       29.65098244
     26.88625656        1.18751156       21.74650756
     23.12887050        2.56987450       23.12887050
     21.74650756        9.09198644       24.51123344
     29.65098244        9.09198644       26.88625656
     24.51123344        6.32726056       24.51123344
     26.88625656        6.32726056       26.88625656
     23.12887050        7.70962350       28.26861950
     26.88625656        3.95223744       24.51123344
     24.51123344        3.95223744       26.88625656
     29.65098244        1.18751156       24.51123344
     21.74650756        1.18751156       26.88625656
     28.26861950        2.56987450       28.26861950
     26.88625656        9.09198644       29.65098244
     24.51123344        9.09198644       21.74650756
     29.65098244        6.32726056       29.65098244
     21.74650756        6.32726056       21.74650756
     28.26861950        7.70962350       23.12887050
      1.18751156       14.23173544       29.65098244
      9.09198644       14.23173544       21.74650756
      3.95223744       11.46700956       29.65098244
      6.32726056       11.46700956       21.74650756
      2.56987450       12.84937250       23.12887050
      1.18751156       19.37148444       24.51123344
      9.09198644       19.37148444       26.88625656
      3.95223744       16.60675856       24.51123344
      6.32726056       16.60675856       26.88625656
      2.56987450       17.98912150       28.26861950
      6.32726056       14.23173544       24.51123344
      3.95223744       14.23173544       26.88625656
      9.09198644       11.46700956       24.51123344
      1.18751156       11.46700956       26.88625656
      7.70962350       12.84937250       28.26861950
      6.32726056       19.37148444       29.65098244
      3.95223744       19.37148444       21.74650756
      9.09198644       16.60675856       29.65098244
      1.18751156       16.60675856       21.74650756
      7.70962350       17.98912150       23.12887050
     11.46700956       14.23173544       29.65098244
     19.37148444       14.23173544       21.74650756
     14.23173544       11.46700956       29.65098244
     16.60675856       11.46700956       21.74650756
     12.84937250       12.84937250       23.12887050
     11.46700956       19.37148444       24.51123344
     19.37148444       19.37148444       26.88625656
     14.23173544       16.60675856       24.51123344
     16.60675856       16.60675856       26.88625656
     12.84937250       17.98912150       28.26861950
     16.60675856       14.23173544       24.51123344
     14.23173544       14.23173544       26.88625656
     19.37148444       11.46700956       24.51123344
     11.46700956       11.46700956       26.88625656
     17.98912150       12.84937250       28.26861950
     16.60675856       19.37148444       29.65098244
     14.23173544       19.37148444       21.74650756
     19.37148444       16.60675856       29.65098244
     11.46700956       16.60675856       21.74650756
     17.98912150       17.98912150       23.12887050
     21.74650756       14.23173544       29.65098244
     29.65098244       14.23173544       21.74650756
     24.51123344       11.46700956       29.65098244
     26.88625656       11.46700956       21.74650756
     23.12887050       12.84937250       23.12887050
     21.74650756       19.37148444       24.51123344
     29.65098244       19.37148444       26.88625656
     24.51123344       16.60675856       24.51123344
     26.88625656       16.60675856       26.88625656
     23.12887050       17.98912150       28.26861950
     26.88625656       14.23173544       24.51123344
     24.51123344       14.23173544       26.88625656
     29.65098244       11.46700956       24.51123344
     21.74650756       11.46700956       26.88625656
     28.26861950       12.84937250       28.26861950
     26.88625656       19.37148444       29.65098244
     24.51123344       19.37148444       21.74650756
     29.65098244       16.60675856       29.65098244
     21.74650756       16.60675856       21.74650756
     28.26861950       17.98912150       23.12887050
      1.18751156       24.51123344       29.65098244
      9.09198644       24.51123344       21.74650756
      3.95223744       21.74650756       29.65098244
      6.32726056       21.74650756       21.74650756
      2.56987450       23.12887050       23.12887050
      1.18751156       29.65098244       24.51123344
      9.09198644       29.65098244       26.88625656
      3.95223744       26.88625656       24.51123344
      6.32726056       26.88625656       26.88625656
      2.56987450       28.26861950       28.26861950
      6.32726056       24.51123344       24.51123344
      3.95223744       24.51123344       26.88625656
      9.09198644       21.74650756       24.51123344
      1.18751156       21.74650756       26.88625656
      7.70962350       23.12887050       28.26861950
      6.32726056       29.65098244       29.65098244
      3.95223744       29.65098244       21.74650756
      9.09198644       26.88625656       29.65098244
      1.18751156       26.88625656       21.74650756
      7.70962350       28.26861950       23.12887050
     11.46700956       24.51123344       29.65098244
     19.37148444       24.51123344       21.74650756
     14.23173544       21.74650756       29.65098244
     16.60675856       21.74650756       21.74650756
     12.84937250       23.12887050       23.12887050
     11.46700956       29.65098244       24.51123344
     19.37148444       29.65098244       26.88625656
     14.23173544       26.88625656       24.51123344
     16.60675856       26.88625656       26.88625656
     12.84937250       28.26861950       28.26861950
     16.60675856       24.51123344       24.51123344
     14.23173544       24.51123344       26.88625656
     19.37148444       21.74650756       24.51123344
     11.46700956       21.74650756       26.88625656
     17.98912150       23.12887050       28.26861950
     16.60675856       29.65098244       29.65098244
     14.23173544       29.65098244       21.74650756
     19.37148444       26.88625656       29.65098244
     11.46700956       26.88625656       21.74650756
     17.98912150       28.26861950       23.12887050
     21.74650756       24.51123344       29.65098244
     29.65098244       24.51123344       21.74650756
     24.51123344       21.74650756       29.65098244
     26.88625656       21.74650756       21.74650756
     23.12887050       23.12887050       23.12887050
     21.74650756       29.65098244       24.51123344
     29.65098244       29.65098244       26.88625656
     24.51123344       26.88625656       24.51123344
     26.88625656       26.88625656       26.88625656
     23.12887050       28.26861950       28.26861950
     26.88625656       24.51123344       24.51123344
     24.51123344       24.51123344       26.88625656
     29.65098244       21.74650756       24.51123344
     21.74650756       21.74650756       26.88625656
     28.26861950       23.12887050       28.26861950
     26.88625656       29.65098244       29.65098244
     24.51123344       29.65098244       21.74650756
     29.65098244       26.88625656       29.65098244
     21.74650756       26.88625656       21.74650756
     28.26861950       28.26861950       23.12887050
      0.00000000        0.00000000        0.00000000
      0.00000000        5.13974900        5.13974900
      5.13974900        0.00000000        5.13974900
      5.13974900        5.13974900        0.00000000
     10.27949800        0.00000000        0.00000000
     10.27949800        5.13974900        5.13974900
     15.41924700        0.00000000        5.13974900
     15.41924700        5.13974900        0.00000000
     20.55899600        0.00000000        0.00000000
     20.55899600        5.13974900        5.13974900
     25.69874500        0.00000000        5.13974900
     25.69874500        5.13974900        0.00000000
      0.00000000       10.27949800        0.00000000
      0.00000000       15.41924700        5.13974900
      5.13974900       10.27949800        5.13974900
      5.13974900       15.41924700        0.00000000
     10.27949800       10.27949800        0.00000000
     10.27949800       15.41924700        5.13974900
     15.41924700       10.27949800        5.13974900
     15.41924700       15.41924700        0.00000000
     20.55899600       10.27949800        0.00000000
     20.55899600       15.41924700        5.13974900
     25.69874500       10.27949800        5.13974900
     25.69874500       15.41924700        0.00000000
      0.00000000       20.55899600        0.00000000
      0.00000000       25.69874500        5.13974900
      5.13974900       20.55899600        5.13974900
      5.13974900       25.69874500        0.00000000
     10.27949800       20.55899600        0.00000000
     10.27949800       25.69874500        5.13974900
     15.41924700       20.55899600        5.13974900
     15.41924700       25.69874500        0.00000000
     20.55899600       20.55899600        0.00000000
     20.55899600       25.69874500        5.13974900
     25.69874500       20.55899600        5.13974900
     25.69874500       25.69874500        0.00000000
      0.00000000        0.00000000       10.27949800
      0.00000000        5.13974900       15.41924700
      5.13974900        0.00000000       15.41924700
      5.13974900        5.13974900       10.27949800
     10.27949800        0.00000000       10.27949800
     10.27949800        5.13974900       15.41924700
     15.41924700        0.00000000       15.41924700
     15.41924700        5.13974900       10.27949800
     20.55899600        0.00000000       10.27949800
     20.55899600        5.13974900       15.41924700
     25.69874500        0.00000000       15.41924700
     25.69874500        5.13974900       10.27949800
      0.00000000       10.27949800       10.27949800
      0.00000000       15.41924700       15.41924700
      5.13974900       10.27949800       15.41924700
      5.13974900       15.41924700       10.27949800
     10.27949800       10.27949800       10.27949800
     10.27949800       15.41924700       15.41924700
     15.41924700       10.27949800       15.41924700
     15.41924700       15.41924700       10.27949800
     20.55899600       10.27949800       10.27949800
     20.55899600       15.41924700       15.41924700
     25.69874500       10.27949800       15.41924700
     25.69874500       15.41924700       10.27949800
      0.00000000       20.55899600       10.27949800
      0.00000000       25.69874500       15.41924700
      5.13974900       20.55899600       15.41924700
      5.13974900       25.69874500       10.27949800
     10.27949800       20.55899600       10.27949800
     10.27949800       25.69874500       15.41924700
     15.41924700       20.55899600       15.41924700
     15.41924700       25.69874500       10.27949800
     20.55899600       20.55899600       10.27949800
     20.55899600       25.69874500       15.41924700
     25.69874500       20.55899600       15.41924700
     25.69874500       25.69874500       10.27949800
      0.00000000        0.00000000       20.55899600
      0.00000000        5.13974900       25.69874500
      5.13974900        0.00000000       25.69874500
      5.13974900        5.13974900       20.55899600
     10.27949800        0.00000000       20.55899600
     10.27949800        5.13974900       25.69874500
     15.41924700        0.00000000       25.69874500
     15.41924700        5.13974900       20.55899600
     20.55899600        0.00000000       20.55899600
     20.55899600        5.13974900       25.69874500
     25.69874500        0.00000000       25.69874500
     25.69874500        5.13974900       20.55899600
      0.00000000       10.27949800       20.55899600
      0.00000000       15.41924700       25.69874500
      5.13974900       10.27949800       25.69874500
      5.13974900       15.41924700       20.55899600
     10.27949800       10.27949800       20.55899600
     10.27949800       15.41924700       25.69874500
     15.41924700       10.27949800       25.69874500
     15.41924700       15.41924700       20.55899600
     20.55899600       10.27949800       20.55899600
     20.55899600       15.41924700       25.69874500
     25.69874500       10.27949800       25.69874500
     25.69874500       15.41924700       20.55899600
      0.00000000       20.55899600       20.55899600
      0.00000000       25.69874500       25.69874500
      5.13974900       20.55899600       25.69874500
      5.13974900       25.69874500       20.55899600
     10.27949800       20.55899600       20.55899600
     10.27949800       25.69874500       25.69874500
     15.41924700       20.55899600       25.69874500
     15.41924700       25.69874500       20.55899600
     20.55899600       20.55899600       20.55899600
     20.55899600       25.69874500       25.69874500
     25.69874500       20.55899600       25.69874500
     25.69874500       25.69874500       20.55899600
