# Li24 P4 S20 Cl4
1.000000
     10.27949800        0.00000000        0.00000000
      0.00000000       10.27949800        0.00000000
      0.00000000        0.00000000       10.27949800
 Li  P  S  Cl
    24       4      20       4
Cartesian
      2.56987450        2.56987450        0.23759004
      2.56987450        2.56987450        4.90215896
      2.56987450        4.90215896        2.56987450
      2.56987450        0.23759004        2.56987450
      0.23759004        2.56987450        2.56987450
      4.90215896        2.56987450        2.56987450
      2.56987450        7.70962350        5.37733904
      2.56987450        7.70962350       10.04190796
      2.56987450       10.04190796        7.70962350
      2.56987450        5.37733904        7.70962350
      0.23759004        7.70962350        7.70962350
      4.90215896        7.70962350        7.70962350
      7.70962350        2.56987450        5.37733904
      7.70962350        2.56987450       10.04190796
      7.70962350        4.90215896        7.70962350
      7.70962350        0.23759004        7.70962350
      5.37733904        2.56987450        7.70962350
     10.04190796        2.56987450        7.70962350
      7.70962350        7.70962350        0.23759004
      7.70962350        7.70962350        4.90215896
      7.70962350       10.04190796        2.56987450
      7.70962350        5.37733904        2.56987450
      5.37733904        7.70962350        2.56987450
     10.04190796        7.70962350        2.56987450
      5.13974900        0.00000000        0.00000000
      5.13974900        5.13974900        5.13974900
      0.00000000        0.00000000        5.13974900
      0.00000000        5.13974900        0.00000000
      1.18751156        3.95223744        9.09198644
      9.09198644        3.95223744        1.18751156
      3.95223744        1.18751156        9.09198644
      6.32726056        1.18751156        1.18751156
      2.56987450        2.56987450        2.56987450
      1.18751156        9.09198644        3.95223744
      9.09198644        9.09198644        6.32726056
      3.95223744        6.32726056        3.95223744
      6.32726056        6.32726056        6.32726056
      2.56987450        7.70962350        7.70962350
      6.32726056        3.95223744        3.95223744
      3.95223744        3.95223744        6.32726056
      9.09198644        1.18751156        3.95223744
      1.18751156        1.18751156        6.32726056
      7.70962350        2.56987450        7.70962350
      6.32726056        9.09198644        9.09198644
      3.95223744        9.09198644        1.18751156
      9.09198644        6.32726056        9.09198644
      1.18751156        6.32726056        1.18751156
      7.70962350        7.70962350        2.56987450
      0.00000000        0.00000000        0.00000000
      0.00000000        5.13974900        5.13974900
      5.13974900        0.00000000        5.13974900
      5.13974900        5.13974900        0.00000000
