# Li24 P4 S20 Cl4
1.000000
     20.55899600        0.00000000        0.00000000
      0.00000000       20.55899600        0.00000000
      0.00000000        0.00000000       20.55899600
 Li  P  S  Cl
   192      32     160      32
Cartesian
      2.56987450        2.56987450        0.23759004
      2.56987450        2.56987450        4.90215896
      2.56987450        4.90215896        2.56987450
      2.56987450        0.23759004        2.56987450
      0.23759004        2.56987450        2.56987450
      4.90215896        2.56987450        2.56987450
      2.56987450        7.70962350        5.37733904
      2.56987450        7.70962350       10.04190796
      2.56987450       10.04190796        7.70962350
      2.56987450        5.37733904        7.70962350
      0.23759004        7.70962350        7.70962350
      4.90215896        7.70962350        7.70962350
      7.70962350        2.56987450        5.37733904
      7.70962350        2.56987450       10.04190796
      7.70962350        4.90215896        7.70962350
      7.70962350        0.23759004        7.70962350
      5.37733904        2.56987450        7.70962350
     10.04190796        2.56987450        7.70962350
      7.70962350        7.70962350        0.23759004
      7.70962350        7.70962350        4.90215896
      7.70962350       10.04190796        2.56987450
      7.70962350        5.37733904        2.56987450
      5.37733904        7.70962350        2.56987450
     10.04190796        7.70962350        2.56987450
     12.84937250        2.56987450        0.23759004
     12.84937250        2.56987450        4.90215896
     12.84937250        4.90215896        2.56987450
     12.84937250        0.23759004        2.56987450
     10.51708804        2.56987450        2.56987450
     15.18165696        2.56987450        2.56987450
     12.84937250        7.70962350        5.37733904
     12.84937250        7.70962350       10.04190796
     12.84937250       10.04190796        7.70962350
     12.84937250        5.37733904        7.70962350
     10.51708804        7.70962350        7.70962350
     15.18165696        7.70962350        7.70962350
     17.98912150        2.56987450        5.37733904
     17.98912150        2.56987450       10.04190796
     17.98912150        4.90215896        7.70962350
     17.98912150        0.23759004        7.70962350
     15.65683704        2.56987450        7.70962350
     20.32140596        2.56987450        7.70962350
     17.98912150        7.70962350        0.23759004
     17.98912150        7.70962350        4.90215896
     17.98912150       10.04190796        2.56987450
     17.98912150        5.37733904        2.56987450
     15.65683704        7.70962350        2.56987450
     20.32140596        7.70962350        2.56987450
      2.56987450       12.84937250        0.23759004
      2.56987450       12.84937250        4.90215896
      2.56987450       15.18165696        2.56987450
      2.56987450       10.51708804        2.56987450
      0.23759004       12.84937250        2.56987450
      4.90215896       12.84937250        2.56987450
      2.56987450       17.98912150        5.37733904
      2.56987450       17.98912150       10.04190796
      2.56987450       20.32140596        7.70962350
      2.56987450       15.65683704        7.70962350
      0.23759004       17.98912150        7.70962350
      4.90215896       17.98912150        7.70962350
      7.70962350       12.84937250        5.37733904
      7.70962350       12.84937250       10.04190796
      7.70962350       15.18165696        7.70962350
      7.70962350       10.51708804        7.70962350
      5.37733904       12.84937250        7.70962350
     10.04190796       12.84937250        7.70962350
      7.70962350       17.98912150        0.23759004
      7.70962350       17.98912150        4.90215896
      7.70962350       20.32140596        2.56987450
      7.70962350       15.65683704        2.56987450
      5.37733904       17.98912150        2.56987450
     10.04190796       17.98912150        2.56987450
     12.84937250       12.84937250        0.23759004
     12.84937250       12.84937250        4.90215896
     12.84937250       15.18165696        2.56987450
     12.84937250       10.51708804        2.56987450
     10.51708804       12.84937250        2.56987450
     15.18165696       12.84937250        2.56987450
     12.84937250       17.98912150        5.37733904
     12.84937250       17.98912150       10.04190796
     12.84937250       20.32140596        7.70962350
     12.84937250       15.65683704        7.70962350
     10.51708804       17.98912150        7.70962350
     15.18165696       17.98912150        7.70962350
     17.98912150       12.84937250        5.37733904
     17.98912150       12.84937250       10.04190796
     17.98912150       15.18165696        7.70962350
     17.98912150       10.51708804        7.70962350
     15.65683704       12.84937250        7.70962350
     20.32140596       12.84937250        7.70962350
     17.98912150       17.98912150        0.23759004
     17.98912150       17.98912150        4.90215896
     17.98912150       20.32140596        2.56987450
     17.98912150       15.65683704        2.56987450
     15.65683704       17.98912150        2.56987450
     20.32140596       17.98912150        2.56987450
      2.56987450        2.56987450       10.51708804
      2.56987450        2.56987450       15.18165696
      2.56987450        4.90215896       12.84937250
      2.56987450        0.23759004       12.84937250
      0.23759004        2.56987450       12.84937250
      4.90215896        2.56987450       12.84937250
      2.56987450        7.70962350       15.65683704
      2.56987450        7.70962350       20.32140596
      2.56987450       10.04190796       17.98912150
      2.56987450        5.37733904       17.98912150
      0.23759004        7.70962350       17.98912150
      4.90215896        7.70962350       17.98912150
      7.70962350        2.56987450       15.65683704
      7.70962350        2.56987450       20.32140596
      7.70962350        4.90215896       17.98912150
      7.70962350        0.23759004       17.98912150
      5.37733904        2.56987450       17.98912150
     10.04190796        2.56987450       17.98912150
      7.70962350        7.70962350       10.51708804
      7.70962350        7.70962350       15.18165696
      7.70962350       10.04190796       12.84937250
      7.70962350        5.37733904       12.84937250
      5.37733904        7.70962350       12.84937250
     10.04190796        7.70962350       12.84937250
     12.84937250        2.56987450       10.51708804
     12.84937250        2.56987450       15.18165696
     12.84937250        4.90215896       12.84937250
     12.84937250        0.23759004       12.84937250
     10.51708804        2.56987450       12.84937250
     15.18165696        2.56987450       12.84937250
     12.84937250        7.70962350       15.65683704
     12.84937250        7.70962350       20.32140596
     12.84937250       10.04190796       17.98912150
     12.84937250        5.37733904       17.98912150
     10.51708804        7.70962350       17.98912150
     15.18165696        7.70962350       17.98912150
     17.98912150        2.56987450       15.65683704
     17.98912150        2.56987450       20.32140596
     17.98912150        4.90215896       17.98912150
     17.98912150        0.23759004       17.98912150
     15.65683704        2.56987450       17.98912150
     20.32140596        2.56987450       17.98912150
     17.98912150        7.70962350       10.51708804
     17.98912150        7.70962350       15.18165696
     17.98912150       10.04190796       12.84937250
     17.98912150        5.37733904       12.84937250
     15.65683704        7.70962350       12.84937250
     20.32140596        7.70962350       12.84937250
      2.56987450       12.84937250       10.51708804
      2.56987450       12.84937250       15.18165696
      2.56987450       15.18165696       12.84937250
      2.56987450       10.51708804       12.84937250
      0.23759004       12.84937250       12.84937250
      4.90215896       12.84937250       12.84937250
      2.56987450       17.98912150       15.65683704
      2.56987450       17.98912150       20.32140596
      2.56987450       20.32140596       17.98912150
      2.56987450       15.65683704       17.98912150
      0.23759004       17.98912150       17.98912150
      4.90215896       17.98912150       17.98912150
      7.70962350       12.84937250       15.65683704
      7.70962350       12.84937250       20.32140596
      7.70962350       15.18165696       17.98912150
      7.70962350       10.51708804       17.98912150
      5.37733904       12.84937250       17.98912150
     10.04190796       12.84937250       17.98912150
      7.70962350       17.98912150       10.51708804
      7.70962350       17.98912150       15.18165696
      7.70962350       20.32140596       12.84937250
      7.70962350       15.65683704       12.84937250
      5.37733904       17.98912150       12.84937250
     10.04190796       17.98912150       12.84937250
     12.84937250       12.84937250       10.51708804
     12.84937250       12.84937250       15.18165696
     12.84937250       15.18165696       12.84937250
     12.84937250       10.51708804       12.84937250
     10.51708804       12.84937250       12.84937250
     15.18165696       12.84937250       12.84937250
     12.84937250       17.98912150       15.65683704
     12.84937250       17.98912150       20.32140596
     12.84937250       20.32140596       17.98912150
     12.84937250       15.65683704       17.98912150
     10.51708804       17.98912150       17.98912150
     15.18165696       17.98912150       17.98912150
     17.98912150       12.84937250       15.65683704
     17.98912150       12.84937250       20.32140596
     17.98912150       15.18165696       17.98912150
     17.98912150       10.51708804       17.98912150
     15.65683704       12.84937250       17.98912150
     20.32140596       12.84937250       17.98912150
     17.98912150       17.98912150       10.51708804
     17.98912150       17.98912150       15.18165696
     17.98912150       20.32140596       12.84937250
     17.98912150       15.65683704       12.84937250
     15.65683704       17.98912150       12.84937250
     20.32140596       17.98912150       12.84937250
      5.13974900        0.00000000        0.00000000
      5.13974900        5.13974900        5.13974900
      0.00000000        0.00000000        5.13974900
      0.00000000        5.13974900        0.00000000
     15.41924700        0.00000000        0.00000000
     15.41924700        5.13974900        5.13974900
     10.27949800        0.00000000        5.13974900
     10.27949800        5.13974900        0.00000000
      5.13974900       10.27949800        0.00000000
      5.13974900       15.41924700        5.13974900
      0.00000000       10.27949800        5.13974900
      0.00000000       15.41924700        0.00000000
     15.41924700       10.27949800        0.00000000
     15.41924700       15.41924700        5.13974900
     10.27949800       10.27949800        5.13974900
     10.27949800       15.41924700        0.00000000
      5.13974900        0.00000000       10.27949800
      5.13974900        5.13974900       15.41924700
      0.00000000        0.00000000       15.41924700
      0.00000000        5.13974900       10.27949800
     15.41924700        0.00000000       10.27949800
     15.41924700        5.13974900       15.41924700
     10.27949800        0.00000000       15.41924700
     10.27949800        5.13974900       10.27949800
      5.13974900       10.27949800       10.27949800
      5.13974900       15.41924700       15.41924700
      0.00000000       10.27949800       15.41924700
      0.00000000       15.41924700       10.27949800
     15.41924700       10.27949800       10.27949800
     15.41924700       15.41924700       15.41924700
     10.27949800       10.27949800       15.41924700
     10.27949800       15.41924700       10.27949800
      1.18751156        3.95223744        9.09198644
      9.09198644        3.95223744        1.18751156
      3.95223744        1.18751156        9.09198644
      6.32726056        1.18751156        1.18751156
      2.56987450        2.56987450        2.56987450
      1.18751156        9.09198644        3.95223744
      9.09198644        9.09198644        6.32726056
      3.95223744        6.32726056        3.95223744
      6.32726056        6.32726056        6.32726056
      2.56987450        7.70962350        7.70962350
      6.32726056        3.95223744        3.95223744
      3.95223744        3.95223744        6.32726056
      9.09198644        1.18751156        3.95223744
      1.18751156        1.18751156        6.32726056
      7.70962350        2.56987450        7.70962350
      6.32726056        9.09198644        9.09198644
      3.95223744        9.09198644        1.18751156
      9.09198644        6.32726056        9.09198644
      1.18751156        6.32726056        1.18751156
      7.70962350        7.70962350        2.56987450
     11.46700956        3.95223744        9.09198644
     19.37148444        3.95223744        1.18751156
     14.23173544        1.18751156        9.09198644
     16.60675856        1.18751156        1.18751156
     12.84937250        2.56987450        2.56987450
     11.46700956        9.09198644        3.95223744
     19.37148444        9.09198644        6.32726056
     14.23173544        6.32726056        3.95223744
     16.60675856        6.32726056        6.32726056
     12.84937250        7.70962350        7.70962350
     16.60675856        3.95223744        3.95223744
     14.23173544        3.95223744        6.32726056
     19.37148444        1.18751156        3.95223744
     11.46700956        1.18751156        6.32726056
     17.98912150        2.56987450        7.70962350
     16.60675856        9.09198644        9.09198644
     14.23173544        9.09198644        1.18751156
     19.37148444        6.32726056        9.09198644
     11.46700956        6.32726056        1.18751156
     17.98912150        7.70962350        2.56987450
      1.18751156       14.23173544        9.09198644
      9.09198644       14.23173544        1.18751156
      3.95223744       11.46700956        9.09198644
      6.32726056       11.46700956        1.18751156
      2.56987450       12.84937250        2.56987450
      1.18751156       19.37148444        3.95223744
      9.09198644       19.37148444        6.32726056
      3.95223744       16.60675856        3.95223744
      6.32726056       16.60675856        6.32726056
      2.56987450       17.98912150        7.70962350
      6.32726056       14.23173544        3.95223744
      3.95223744       14.23173544        6.32726056
      9.09198644       11.46700956        3.95223744
      1.18751156       11.46700956        6.32726056
      7.70962350       12.84937250        7.70962350
      6.32726056       19.37148444        9.09198644
      3.95223744       19.37148444        1.18751156
      9.09198644       16.60675856        9.09198644
      1.18751156       16.60675856        1.18751156
      7.70962350       17.98912150        2.56987450
     11.46700956       14.23173544        9.09198644
     19.37148444       14.23173544        1.18751156
     14.23173544       11.46700956        9.09198644
     16.60675856       11.46700956        1.18751156
     12.84937250       12.84937250        2.56987450
     11.46700956       19.37148444        3.95223744
     19.37148444       19.37148444        6.32726056
     14.23173544       16.60675856        3.95223744
     16.60675856       16.60675856        6.32726056
     12.84937250       17.98912150        7.70962350
     16.60675856       14.23173544        3.95223744
     14.23173544       14.23173544        6.32726056
     19.37148444       11.46700956        3.95223744
     11.46700956       11.46700956        6.32726056
     17.98912150       12.84937250        7.70962350
     16.60675856       19.37148444        9.09198644
     14.23173544       19.37148444        1.18751156
     19.37148444       16.60675856        9.09198644
     11.46700956       16.60675856        1.18751156
     17.98912150       17.98912150        2.56987450
      1.18751156        3.95223744       19.37148444
      9.09198644        3.95223744       11.46700956
      3.95223744        1.18751156       19.37148444
      6.32726056        1.18751156       11.46700956
      2.56987450        2.56987450       12.84937250
      1.18751156        9.09198644       14.23173544
      9.09198644        9.09198644       16.60675856
      3.95223744        6.32726056       14.23173544
      6.32726056        6.32726056       16.60675856
      2.56987450        7.70962350       17.98912150
      6.32726056        3.95223744       14.23173544
      3.95223744        3.95223744       16.60675856
      9.09198644        1.18751156       14.23173544
      1.18751156        1.18751156       16.60675856
      7.70962350        2.56987450       17.98912150
      6.32726056        9.09198644       19.37148444
      3.95223744        9.09198644       11.46700956
      9.09198644        6.32726056       19.37148444
      1.18751156        6.32726056       11.46700956
      7.70962350        7.70962350       12.84937250
     11.46700956        3.95223744       19.37148444
     19.37148444        3.95223744       11.46700956
     14.23173544        1.18751156       19.37148444
     16.60675856        1.18751156       11.46700956
     12.84937250        2.56987450       12.84937250
     11.46700956        9.09198644       14.23173544
     19.37148444        9.09198644       16.60675856
     14.23173544        6.32726056       14.23173544
     16.60675856        6.32726056       16.60675856
     12.84937250        7.70962350       17.98912150
     16.60675856        3.95223744       14.23173544
     14.23173544        3.95223744       16.60675856
     19.37148444        1.18751156       14.23173544
     11.46700956        1.18751156       16.60675856
     17.98912150        2.56987450       17.98912150
     16.60675856        9.09198644       19.37148444
     14.23173544        9.09198644       11.46700956
     19.37148444        6.32726056       19.37148444
     11.46700956        6.32726056       11.46700956
     17.98912150        7.70962350       12.84937250
      1.18751156       14.23173544       19.37148444
      9.09198644       14.23173544       11.46700956
      3.95223744       11.46700956       19.37148444
      6.32726056       11.46700956       11.46700956
      2.56987450       12.84937250       12.84937250
      1.18751156       19.37148444       14.23173544
      9.09198644       19.37148444       16.60675856
      3.95223744       16.60675856       14.23173544
      6.32726056       16.60675856       16.60675856
      2.56987450       17.98912150       17.98912150
      6.32726056       14.23173544       14.23173544
      3.95223744       14.23173544       16.60675856
      9.09198644       11.46700956       14.23173544
      1.18751156       11.46700956       16.60675856
      7.70962350       12.84937250       17.98912150
      6.32726056       19.37148444       19.37148444
      3.95223744       19.37148444       11.46700956
      9.09198644       16.60675856       19.37148444
      1.18751156       16.60675856       11.46700956
      7.70962350       17.98912150       12.84937250
     11.46700956       14.23173544       19.37148444
     19.37148444       14.23173544       11.46700956
     14.23173544       11.46700956       19.37148444
     16.60675856       11.46700956       11.46700956
     12.84937250       12.84937250       12.84937250
     11.46700956       19.37148444       14.23173544
     19.37148444       19.37148444       16.60675856
     14.23173544       16.60675856       14.23173544
     16.60675856       16.60675856       16.60675856
     12.84937250       17.98912150       17.98912150
     16.60675856       14.23173544       14.23173544
     14.23173544       14.23173544       16.60675856
     19.37148444       11.46700956       14.23173544
     11.46700956       11.46700956       16.60675856
     17.98912150       12.84937250       17.98912150
     16.60675856       19.37148444       19.37148444
     14.23173544       19.37148444       11.46700956
     19.37148444       16.60675856       19.37148444
     11.46700956       16.60675856       11.46700956
     17.98912150       17.98912150       12.84937250
      0.00000000        0.00000000        0.00000000
      0.00000000        5.13974900        5.13974900
      5.13974900        0.00000000        5.13974900
      5.13974900        5.13974900        0.00000000
     10.27949800        0.00000000        0.00000000
     10.27949800        5.13974900        5.13974900
     15.41924700        0.00000000        5.13974900
     15.41924700        5.13974900        0.00000000
      0.00000000       10.27949800        0.00000000
      0.00000000       15.41924700        5.13974900
      5.13974900       10.27949800        5.13974900
      5.13974900       15.41924700        0.00000000
     10.27949800       10.27949800        0.00000000
     10.27949800       15.41924700        5.13974900
     15.41924700       10.27949800        5.13974900
     15.41924700       15.41924700        0.00000000
      0.00000000        0.00000000       10.27949800
      0.00000000        5.13974900       15.41924700
      5.13974900        0.00000000       15.41924700
      5.13974900        5.13974900       10.27949800
     10.27949800        0.00000000       10.27949800
     10.27949800        5.13974900       15.41924700
     15.41924700        0.00000000       15.41924700
     15.41924700        5.13974900       10.27949800
      0.00000000       10.27949800       10.27949800
      0.00000000       15.41924700       15.41924700
      5.13974900       10.27949800       15.41924700
      5.13974900       15.41924700       10.27949800
     10.27949800       10.27949800       10.27949800
     10.27949800       15.41924700       15.41924700
     15.41924700       10.27949800       15.41924700
     15.41924700       15.41924700       10.27949800
